super cell
        1.0000000000
  21.442545691185352   0.000000000000000   0.000000000000000
   0.000000000000000  21.442545691185352   0.000000000000000
   0.000000000000000   0.000000000000000  21.442545691185352
  432
 Direct
   0.000000000000000   0.000000000000000   0.000000000000000
   0.166666666666667   0.000000000000000   0.000000000000000
   0.333333333333333   0.000000000000000   0.000000000000000
   0.500000000000000   0.000000000000000   0.000000000000000
   0.666666666666667   0.000000000000000   0.000000000000000
   0.833333333333333   0.000000000000000   0.000000000000000
   0.000000000000000   0.166666666666667   0.000000000000000
   0.166666666666667   0.166666666666667   0.000000000000000
   0.333333333333333   0.166666666666667   0.000000000000000
   0.500000000000000   0.166666666666667   0.000000000000000
   0.666666666666667   0.166666666666667   0.000000000000000
   0.833333333333333   0.166666666666667   0.000000000000000
   0.000000000000000   0.333333333333333   0.000000000000000
   0.166666666666667   0.333333333333333   0.000000000000000
   0.333333333333333   0.333333333333333   0.000000000000000
   0.500000000000000   0.333333333333333   0.000000000000000
   0.666666666666667   0.333333333333333   0.000000000000000
   0.833333333333333   0.333333333333333   0.000000000000000
   0.000000000000000   0.500000000000000   0.000000000000000
   0.166666666666667   0.500000000000000   0.000000000000000
   0.333333333333333   0.500000000000000   0.000000000000000
   0.500000000000000   0.500000000000000   0.000000000000000
   0.666666666666667   0.500000000000000   0.000000000000000
   0.833333333333333   0.500000000000000   0.000000000000000
   0.000000000000000   0.666666666666667   0.000000000000000
   0.166666666666667   0.666666666666667   0.000000000000000
   0.333333333333333   0.666666666666667   0.000000000000000
   0.500000000000000   0.666666666666667   0.000000000000000
   0.666666666666667   0.666666666666667   0.000000000000000
   0.833333333333333   0.666666666666667   0.000000000000000
   0.000000000000000   0.833333333333333   0.000000000000000
   0.166666666666667   0.833333333333333   0.000000000000000
   0.333333333333333   0.833333333333333   0.000000000000000
   0.500000000000000   0.833333333333333   0.000000000000000
   0.666666666666667   0.833333333333333   0.000000000000000
   0.833333333333333   0.833333333333333   0.000000000000000
   0.083333333333333   0.083333333333333   0.083333333333333
   0.250000000000000   0.083333333333333   0.083333333333333
   0.416666666666667   0.083333333333333   0.083333333333333
   0.583333333333333   0.083333333333333   0.083333333333333
   0.750000000000000   0.083333333333333   0.083333333333333
   0.916666666666667   0.083333333333333   0.083333333333333
   0.083333333333333   0.250000000000000   0.083333333333333
   0.250000000000000   0.250000000000000   0.083333333333333
   0.416666666666667   0.250000000000000   0.083333333333333
   0.583333333333333   0.250000000000000   0.083333333333333
   0.750000000000000   0.250000000000000   0.083333333333333
   0.916666666666667   0.250000000000000   0.083333333333333
   0.083333333333333   0.416666666666667   0.083333333333333
   0.250000000000000   0.416666666666667   0.083333333333333
   0.416666666666667   0.416666666666667   0.083333333333333
   0.583333333333333   0.416666666666667   0.083333333333333
   0.750000000000000   0.416666666666667   0.083333333333333
   0.916666666666667   0.416666666666667   0.083333333333333
   0.083333333333333   0.583333333333333   0.083333333333333
   0.250000000000000   0.583333333333333   0.083333333333333
   0.416666666666667   0.583333333333333   0.083333333333333
   0.583333333333333   0.583333333333333   0.083333333333333
   0.750000000000000   0.583333333333333   0.083333333333333
   0.916666666666667   0.583333333333333   0.083333333333333
   0.083333333333333   0.750000000000000   0.083333333333333
   0.250000000000000   0.750000000000000   0.083333333333333
   0.416666666666667   0.750000000000000   0.083333333333333
   0.583333333333333   0.750000000000000   0.083333333333333
   0.750000000000000   0.750000000000000   0.083333333333333
   0.916666666666667   0.750000000000000   0.083333333333333
   0.083333333333333   0.916666666666667   0.083333333333333
   0.250000000000000   0.916666666666667   0.083333333333333
   0.416666666666667   0.916666666666667   0.083333333333333
   0.583333333333333   0.916666666666667   0.083333333333333
   0.750000000000000   0.916666666666667   0.083333333333333
   0.916666666666667   0.916666666666667   0.083333333333333
   0.000000000000000   0.000000000000000   0.166666666666667
   0.166666666666667   0.000000000000000   0.166666666666667
   0.333333333333333   0.000000000000000   0.166666666666667
   0.500000000000000   0.000000000000000   0.166666666666667
   0.666666666666667   0.000000000000000   0.166666666666667
   0.833333333333333   0.000000000000000   0.166666666666667
   0.000000000000000   0.166666666666667   0.166666666666667
   0.166666666666667   0.166666666666667   0.166666666666667
   0.333333333333333   0.166666666666667   0.166666666666667
   0.500000000000000   0.166666666666667   0.166666666666667
   0.666666666666667   0.166666666666667   0.166666666666667
   0.833333333333333   0.166666666666667   0.166666666666667
   0.000000000000000   0.333333333333333   0.166666666666667
   0.166666666666667   0.333333333333333   0.166666666666667
   0.333333333333333   0.333333333333333   0.166666666666667
   0.500000000000000   0.333333333333333   0.166666666666667
   0.666666666666667   0.333333333333333   0.166666666666667
   0.833333333333333   0.333333333333333   0.166666666666667
   0.000000000000000   0.500000000000000   0.166666666666667
   0.166666666666667   0.500000000000000   0.166666666666667
   0.333333333333333   0.500000000000000   0.166666666666667
   0.500000000000000   0.500000000000000   0.166666666666667
   0.666666666666667   0.500000000000000   0.166666666666667
   0.833333333333333   0.500000000000000   0.166666666666667
   0.000000000000000   0.666666666666667   0.166666666666667
   0.166666666666667   0.666666666666667   0.166666666666667
   0.333333333333333   0.666666666666667   0.166666666666667
   0.500000000000000   0.666666666666667   0.166666666666667
   0.666666666666667   0.666666666666667   0.166666666666667
   0.833333333333333   0.666666666666667   0.166666666666667
   0.000000000000000   0.833333333333333   0.166666666666667
   0.166666666666667   0.833333333333333   0.166666666666667
   0.333333333333333   0.833333333333333   0.166666666666667
   0.500000000000000   0.833333333333333   0.166666666666667
   0.666666666666667   0.833333333333333   0.166666666666667
   0.833333333333333   0.833333333333333   0.166666666666667
   0.083333333333333   0.083333333333333   0.250000000000000
   0.250000000000000   0.083333333333333   0.250000000000000
   0.416666666666667   0.083333333333333   0.250000000000000
   0.583333333333333   0.083333333333333   0.250000000000000
   0.750000000000000   0.083333333333333   0.250000000000000
   0.916666666666667   0.083333333333333   0.250000000000000
   0.083333333333333   0.250000000000000   0.250000000000000
   0.250000000000000   0.250000000000000   0.250000000000000
   0.416666666666667   0.250000000000000   0.250000000000000
   0.583333333333333   0.250000000000000   0.250000000000000
   0.750000000000000   0.250000000000000   0.250000000000000
   0.916666666666667   0.250000000000000   0.250000000000000
   0.083333333333333   0.416666666666667   0.250000000000000
   0.250000000000000   0.416666666666667   0.250000000000000
   0.416666666666667   0.416666666666667   0.250000000000000
   0.583333333333333   0.416666666666667   0.250000000000000
   0.750000000000000   0.416666666666667   0.250000000000000
   0.916666666666667   0.416666666666667   0.250000000000000
   0.083333333333333   0.583333333333333   0.250000000000000
   0.250000000000000   0.583333333333333   0.250000000000000
   0.416666666666667   0.583333333333333   0.250000000000000
   0.583333333333333   0.583333333333333   0.250000000000000
   0.750000000000000   0.583333333333333   0.250000000000000
   0.916666666666667   0.583333333333333   0.250000000000000
   0.083333333333333   0.750000000000000   0.250000000000000
   0.250000000000000   0.750000000000000   0.250000000000000
   0.416666666666667   0.750000000000000   0.250000000000000
   0.583333333333333   0.750000000000000   0.250000000000000
   0.750000000000000   0.750000000000000   0.250000000000000
   0.916666666666667   0.750000000000000   0.250000000000000
   0.083333333333333   0.916666666666667   0.250000000000000
   0.250000000000000   0.916666666666667   0.250000000000000
   0.416666666666667   0.916666666666667   0.250000000000000
   0.583333333333333   0.916666666666667   0.250000000000000
   0.750000000000000   0.916666666666667   0.250000000000000
   0.916666666666667   0.916666666666667   0.250000000000000
   0.000000000000000   0.000000000000000   0.333333333333333
   0.166666666666667   0.000000000000000   0.333333333333333
   0.333333333333333   0.000000000000000   0.333333333333333
   0.500000000000000   0.000000000000000   0.333333333333333
   0.666666666666667   0.000000000000000   0.333333333333333
   0.833333333333333   0.000000000000000   0.333333333333333
   0.000000000000000   0.166666666666667   0.333333333333333
   0.166666666666667   0.166666666666667   0.333333333333333
   0.333333333333333   0.166666666666667   0.333333333333333
   0.500000000000000   0.166666666666667   0.333333333333333
   0.666666666666667   0.166666666666667   0.333333333333333
   0.833333333333333   0.166666666666667   0.333333333333333
   0.000000000000000   0.333333333333333   0.333333333333333
   0.166666666666667   0.333333333333333   0.333333333333333
   0.333333333333333   0.333333333333333   0.333333333333333
   0.500000000000000   0.333333333333333   0.333333333333333
   0.666666666666667   0.333333333333333   0.333333333333333
   0.833333333333333   0.333333333333333   0.333333333333333
   0.000000000000000   0.500000000000000   0.333333333333333
   0.166666666666667   0.500000000000000   0.333333333333333
   0.333333333333333   0.500000000000000   0.333333333333333
   0.500000000000000   0.500000000000000   0.333333333333333
   0.666666666666667   0.500000000000000   0.333333333333333
   0.833333333333333   0.500000000000000   0.333333333333333
   0.000000000000000   0.666666666666667   0.333333333333333
   0.166666666666667   0.666666666666667   0.333333333333333
   0.333333333333333   0.666666666666667   0.333333333333333
   0.500000000000000   0.666666666666667   0.333333333333333
   0.666666666666667   0.666666666666667   0.333333333333333
   0.833333333333333   0.666666666666667   0.333333333333333
   0.000000000000000   0.833333333333333   0.333333333333333
   0.166666666666667   0.833333333333333   0.333333333333333
   0.333333333333333   0.833333333333333   0.333333333333333
   0.500000000000000   0.833333333333333   0.333333333333333
   0.666666666666667   0.833333333333333   0.333333333333333
   0.833333333333333   0.833333333333333   0.333333333333333
   0.083333333333333   0.083333333333333   0.416666666666667
   0.250000000000000   0.083333333333333   0.416666666666667
   0.416666666666667   0.083333333333333   0.416666666666667
   0.583333333333333   0.083333333333333   0.416666666666667
   0.750000000000000   0.083333333333333   0.416666666666667
   0.916666666666667   0.083333333333333   0.416666666666667
   0.083333333333333   0.250000000000000   0.416666666666667
   0.250000000000000   0.250000000000000   0.416666666666667
   0.416666666666667   0.250000000000000   0.416666666666667
   0.583333333333333   0.250000000000000   0.416666666666667
   0.750000000000000   0.250000000000000   0.416666666666667
   0.916666666666667   0.250000000000000   0.416666666666667
   0.083333333333333   0.416666666666667   0.416666666666667
   0.250000000000000   0.416666666666667   0.416666666666667
   0.416666666666667   0.416666666666667   0.416666666666667
   0.583333333333333   0.416666666666667   0.416666666666667
   0.750000000000000   0.416666666666667   0.416666666666667
   0.916666666666667   0.416666666666667   0.416666666666667
   0.083333333333333   0.583333333333333   0.416666666666667
   0.250000000000000   0.583333333333333   0.416666666666667
   0.416666666666667   0.583333333333333   0.416666666666667
   0.583333333333333   0.583333333333333   0.416666666666667
   0.750000000000000   0.583333333333333   0.416666666666667
   0.916666666666667   0.583333333333333   0.416666666666667
   0.083333333333333   0.750000000000000   0.416666666666667
   0.250000000000000   0.750000000000000   0.416666666666667
   0.416666666666667   0.750000000000000   0.416666666666667
   0.583333333333333   0.750000000000000   0.416666666666667
   0.750000000000000   0.750000000000000   0.416666666666667
   0.916666666666667   0.750000000000000   0.416666666666667
   0.083333333333333   0.916666666666667   0.416666666666667
   0.250000000000000   0.916666666666667   0.416666666666667
   0.416666666666667   0.916666666666667   0.416666666666667
   0.583333333333333   0.916666666666667   0.416666666666667
   0.750000000000000   0.916666666666667   0.416666666666667
   0.916666666666667   0.916666666666667   0.416666666666667
   0.000000000000000   0.000000000000000   0.500000000000000
   0.166666666666667   0.000000000000000   0.500000000000000
   0.333333333333333   0.000000000000000   0.500000000000000
   0.500000000000000   0.000000000000000   0.500000000000000
   0.666666666666667   0.000000000000000   0.500000000000000
   0.833333333333333   0.000000000000000   0.500000000000000
   0.000000000000000   0.166666666666667   0.500000000000000
   0.166666666666667   0.166666666666667   0.500000000000000
   0.333333333333333   0.166666666666667   0.500000000000000
   0.500000000000000   0.166666666666667   0.500000000000000
   0.666666666666667   0.166666666666667   0.500000000000000
   0.833333333333333   0.166666666666667   0.500000000000000
   0.000000000000000   0.333333333333333   0.500000000000000
   0.166666666666667   0.333333333333333   0.500000000000000
   0.333333333333333   0.333333333333333   0.500000000000000
   0.500000000000000   0.333333333333333   0.500000000000000
   0.666666666666667   0.333333333333333   0.500000000000000
   0.833333333333333   0.333333333333333   0.500000000000000
   0.000000000000000   0.500000000000000   0.500000000000000
   0.166666666666667   0.500000000000000   0.500000000000000
   0.333333333333333   0.500000000000000   0.500000000000000
   0.500000000000000   0.500000000000000   0.500000000000000
   0.666666666666667   0.500000000000000   0.500000000000000
   0.833333333333333   0.500000000000000   0.500000000000000
   0.000000000000000   0.666666666666667   0.500000000000000
   0.166666666666667   0.666666666666667   0.500000000000000
   0.333333333333333   0.666666666666667   0.500000000000000
   0.500000000000000   0.666666666666667   0.500000000000000
   0.666666666666667   0.666666666666667   0.500000000000000
   0.833333333333333   0.666666666666667   0.500000000000000
   0.000000000000000   0.833333333333333   0.500000000000000
   0.166666666666667   0.833333333333333   0.500000000000000
   0.333333333333333   0.833333333333333   0.500000000000000
   0.500000000000000   0.833333333333333   0.500000000000000
   0.666666666666667   0.833333333333333   0.500000000000000
   0.833333333333333   0.833333333333333   0.500000000000000
   0.083333333333333   0.083333333333333   0.583333333333333
   0.250000000000000   0.083333333333333   0.583333333333333
   0.416666666666667   0.083333333333333   0.583333333333333
   0.583333333333333   0.083333333333333   0.583333333333333
   0.750000000000000   0.083333333333333   0.583333333333333
   0.916666666666667   0.083333333333333   0.583333333333333
   0.083333333333333   0.250000000000000   0.583333333333333
   0.250000000000000   0.250000000000000   0.583333333333333
   0.416666666666667   0.250000000000000   0.583333333333333
   0.583333333333333   0.250000000000000   0.583333333333333
   0.750000000000000   0.250000000000000   0.583333333333333
   0.916666666666667   0.250000000000000   0.583333333333333
   0.083333333333333   0.416666666666667   0.583333333333333
   0.250000000000000   0.416666666666667   0.583333333333333
   0.416666666666667   0.416666666666667   0.583333333333333
   0.583333333333333   0.416666666666667   0.583333333333333
   0.750000000000000   0.416666666666667   0.583333333333333
   0.916666666666667   0.416666666666667   0.583333333333333
   0.083333333333333   0.583333333333333   0.583333333333333
   0.250000000000000   0.583333333333333   0.583333333333333
   0.416666666666667   0.583333333333333   0.583333333333333
   0.583333333333333   0.583333333333333   0.583333333333333
   0.750000000000000   0.583333333333333   0.583333333333333
   0.916666666666667   0.583333333333333   0.583333333333333
   0.083333333333333   0.750000000000000   0.583333333333333
   0.250000000000000   0.750000000000000   0.583333333333333
   0.416666666666667   0.750000000000000   0.583333333333333
   0.583333333333333   0.750000000000000   0.583333333333333
   0.750000000000000   0.750000000000000   0.583333333333333
   0.916666666666667   0.750000000000000   0.583333333333333
   0.083333333333333   0.916666666666667   0.583333333333333
   0.250000000000000   0.916666666666667   0.583333333333333
   0.416666666666667   0.916666666666667   0.583333333333333
   0.583333333333333   0.916666666666667   0.583333333333333
   0.750000000000000   0.916666666666667   0.583333333333333
   0.916666666666667   0.916666666666667   0.583333333333333
   0.000000000000000   0.000000000000000   0.666666666666667
   0.166666666666667   0.000000000000000   0.666666666666667
   0.333333333333333   0.000000000000000   0.666666666666667
   0.500000000000000   0.000000000000000   0.666666666666667
   0.666666666666667   0.000000000000000   0.666666666666667
   0.833333333333333   0.000000000000000   0.666666666666667
   0.000000000000000   0.166666666666667   0.666666666666667
   0.166666666666667   0.166666666666667   0.666666666666667
   0.333333333333333   0.166666666666667   0.666666666666667
   0.500000000000000   0.166666666666667   0.666666666666667
   0.666666666666667   0.166666666666667   0.666666666666667
   0.833333333333333   0.166666666666667   0.666666666666667
   0.000000000000000   0.333333333333333   0.666666666666667
   0.166666666666667   0.333333333333333   0.666666666666667
   0.333333333333333   0.333333333333333   0.666666666666667
   0.500000000000000   0.333333333333333   0.666666666666667
   0.666666666666667   0.333333333333333   0.666666666666667
   0.833333333333333   0.333333333333333   0.666666666666667
   0.000000000000000   0.500000000000000   0.666666666666667
   0.166666666666667   0.500000000000000   0.666666666666667
   0.333333333333333   0.500000000000000   0.666666666666667
   0.500000000000000   0.500000000000000   0.666666666666667
   0.666666666666667   0.500000000000000   0.666666666666667
   0.833333333333333   0.500000000000000   0.666666666666667
   0.000000000000000   0.666666666666667   0.666666666666667
   0.166666666666667   0.666666666666667   0.666666666666667
   0.333333333333333   0.666666666666667   0.666666666666667
   0.500000000000000   0.666666666666667   0.666666666666667
   0.666666666666667   0.666666666666667   0.666666666666667
   0.833333333333333   0.666666666666667   0.666666666666667
   0.000000000000000   0.833333333333333   0.666666666666667
   0.166666666666667   0.833333333333333   0.666666666666667
   0.333333333333333   0.833333333333333   0.666666666666667
   0.500000000000000   0.833333333333333   0.666666666666667
   0.666666666666667   0.833333333333333   0.666666666666667
   0.833333333333333   0.833333333333333   0.666666666666667
   0.083333333333333   0.083333333333333   0.750000000000000
   0.250000000000000   0.083333333333333   0.750000000000000
   0.416666666666667   0.083333333333333   0.750000000000000
   0.583333333333333   0.083333333333333   0.750000000000000
   0.750000000000000   0.083333333333333   0.750000000000000
   0.916666666666667   0.083333333333333   0.750000000000000
   0.083333333333333   0.250000000000000   0.750000000000000
   0.250000000000000   0.250000000000000   0.750000000000000
   0.416666666666667   0.250000000000000   0.750000000000000
   0.583333333333333   0.250000000000000   0.750000000000000
   0.750000000000000   0.250000000000000   0.750000000000000
   0.916666666666667   0.250000000000000   0.750000000000000
   0.083333333333333   0.416666666666667   0.750000000000000
   0.250000000000000   0.416666666666667   0.750000000000000
   0.416666666666667   0.416666666666667   0.750000000000000
   0.583333333333333   0.416666666666667   0.750000000000000
   0.750000000000000   0.416666666666667   0.750000000000000
   0.916666666666667   0.416666666666667   0.750000000000000
   0.083333333333333   0.583333333333333   0.750000000000000
   0.250000000000000   0.583333333333333   0.750000000000000
   0.416666666666667   0.583333333333333   0.750000000000000
   0.583333333333333   0.583333333333333   0.750000000000000
   0.750000000000000   0.583333333333333   0.750000000000000
   0.916666666666667   0.583333333333333   0.750000000000000
   0.083333333333333   0.750000000000000   0.750000000000000
   0.250000000000000   0.750000000000000   0.750000000000000
   0.416666666666667   0.750000000000000   0.750000000000000
   0.583333333333333   0.750000000000000   0.750000000000000
   0.750000000000000   0.750000000000000   0.750000000000000
   0.916666666666667   0.750000000000000   0.750000000000000
   0.083333333333333   0.916666666666667   0.750000000000000
   0.250000000000000   0.916666666666667   0.750000000000000
   0.416666666666667   0.916666666666667   0.750000000000000
   0.583333333333333   0.916666666666667   0.750000000000000
   0.750000000000000   0.916666666666667   0.750000000000000
   0.916666666666667   0.916666666666667   0.750000000000000
   0.000000000000000   0.000000000000000   0.833333333333333
   0.166666666666667   0.000000000000000   0.833333333333333
   0.333333333333333   0.000000000000000   0.833333333333333
   0.500000000000000   0.000000000000000   0.833333333333333
   0.666666666666667   0.000000000000000   0.833333333333333
   0.833333333333333   0.000000000000000   0.833333333333333
   0.000000000000000   0.166666666666667   0.833333333333333
   0.166666666666667   0.166666666666667   0.833333333333333
   0.333333333333333   0.166666666666667   0.833333333333333
   0.500000000000000   0.166666666666667   0.833333333333333
   0.666666666666667   0.166666666666667   0.833333333333333
   0.833333333333333   0.166666666666667   0.833333333333333
   0.000000000000000   0.333333333333333   0.833333333333333
   0.166666666666667   0.333333333333333   0.833333333333333
   0.333333333333333   0.333333333333333   0.833333333333333
   0.500000000000000   0.333333333333333   0.833333333333333
   0.666666666666667   0.333333333333333   0.833333333333333
   0.833333333333333   0.333333333333333   0.833333333333333
   0.000000000000000   0.500000000000000   0.833333333333333
   0.166666666666667   0.500000000000000   0.833333333333333
   0.333333333333333   0.500000000000000   0.833333333333333
   0.500000000000000   0.500000000000000   0.833333333333333
   0.666666666666667   0.500000000000000   0.833333333333333
   0.833333333333333   0.500000000000000   0.833333333333333
   0.000000000000000   0.666666666666667   0.833333333333333
   0.166666666666667   0.666666666666667   0.833333333333333
   0.333333333333333   0.666666666666667   0.833333333333333
   0.500000000000000   0.666666666666667   0.833333333333333
   0.666666666666667   0.666666666666667   0.833333333333333
   0.833333333333333   0.666666666666667   0.833333333333333
   0.000000000000000   0.833333333333333   0.833333333333333
   0.166666666666667   0.833333333333333   0.833333333333333
   0.333333333333333   0.833333333333333   0.833333333333333
   0.500000000000000   0.833333333333333   0.833333333333333
   0.666666666666667   0.833333333333333   0.833333333333333
   0.833333333333333   0.833333333333333   0.833333333333333
   0.083333333333333   0.083333333333333   0.916666666666667
   0.250000000000000   0.083333333333333   0.916666666666667
   0.416666666666667   0.083333333333333   0.916666666666667
   0.583333333333333   0.083333333333333   0.916666666666667
   0.750000000000000   0.083333333333333   0.916666666666667
   0.916666666666667   0.083333333333333   0.916666666666667
   0.083333333333333   0.250000000000000   0.916666666666667
   0.250000000000000   0.250000000000000   0.916666666666667
   0.416666666666667   0.250000000000000   0.916666666666667
   0.583333333333333   0.250000000000000   0.916666666666667
   0.750000000000000   0.250000000000000   0.916666666666667
   0.916666666666667   0.250000000000000   0.916666666666667
   0.083333333333333   0.416666666666667   0.916666666666667
   0.250000000000000   0.416666666666667   0.916666666666667
   0.416666666666667   0.416666666666667   0.916666666666667
   0.583333333333333   0.416666666666667   0.916666666666667
   0.750000000000000   0.416666666666667   0.916666666666667
   0.916666666666667   0.416666666666667   0.916666666666667
   0.083333333333333   0.583333333333333   0.916666666666667
   0.250000000000000   0.583333333333333   0.916666666666667
   0.416666666666667   0.583333333333333   0.916666666666667
   0.583333333333333   0.583333333333333   0.916666666666667
   0.750000000000000   0.583333333333333   0.916666666666667
   0.916666666666667   0.583333333333333   0.916666666666667
   0.083333333333333   0.750000000000000   0.916666666666667
   0.250000000000000   0.750000000000000   0.916666666666667
   0.416666666666667   0.750000000000000   0.916666666666667
   0.583333333333333   0.750000000000000   0.916666666666667
   0.750000000000000   0.750000000000000   0.916666666666667
   0.916666666666667   0.750000000000000   0.916666666666667
   0.083333333333333   0.916666666666667   0.916666666666667
   0.250000000000000   0.916666666666667   0.916666666666667
   0.416666666666667   0.916666666666667   0.916666666666667
   0.583333333333333   0.916666666666667   0.916666666666667
   0.750000000000000   0.916666666666667   0.916666666666667
   0.916666666666667   0.916666666666667   0.916666666666667
