super cell:13X13X26                     
   1.00073678945000     
    46.0918769143074201    0.0000000000000000    0.0000000000000000
     0.0000000000000000   46.0918769143074201    0.0000000000000000
     0.0000000000000000    0.0000000000000000   92.1837538286148401
    8788
Direct
  0.1137568530586913  0.0940474363792063  0.9598786288020088
  0.0041150544834757  0.9707937808626480  0.1190090159690375
  0.8785964401431745  0.2185401070940499  0.0028376544936031
  0.3525160046658182  0.8929532891143259  0.1993105262640568
  0.6090953712405026  0.9877800772608498  0.9546333168520869
  0.0151611680702900  0.2160974536730556  0.1913547060201290
  0.3671901513941397  0.9909525750578061  0.9518501888699569
  0.3233038916349524  0.0313341315166875  0.8916352276266427
  0.9941579598986412  0.8055309449918954  0.1500770625158892
  0.8657973998101265  0.8481897813312457  0.0577173199066524
  0.5160369131154460  0.2571537680536702  0.8711912694658015
  0.7334757191668069  0.4739272477078446  0.1131279757548776
  0.6789754402623079  0.9634787438856878  0.1281172169012073
  0.9940258463170945  0.0296132372493981  0.9954269361733969
  0.9774479376820605  0.1513180680478364  0.0688993147433329
  0.1614185279758173  0.9349801306588782  0.8776246798309005
  0.0819624562365675  0.8155836649419363  0.2234455420857155
  0.1387019056270531  0.9290145149460987  0.9307173840230321
  0.1113187283916703  0.2767320529548714  0.1401637871202557
  0.5677394157934207  0.9514794973464789  0.0765040517437326
  0.5848751953886334  0.9678016746092983  0.8750250616910908
  0.5342274475810157  0.9801112478783919  0.0155473536339336
  0.6350087969532598  0.0473621861234332  0.0087855704741355
  0.8489452992456620  0.0452930505745308  0.0948684810240502
  0.6982355584070644  0.4320642720165374  0.0185597412980567
  0.7937357737468826  0.0553319230052440  0.1259055102955210
  0.8729184254529693  0.3893256439731989  0.0721391373492463
  0.8853194095099930  0.7895065749000070  0.0391039270609115
  0.1177853302294791  0.0771354565760223  0.1280376833270988
  0.3694329769553049  0.1897440352443023  0.0435060028426077
  0.2299319839769746  0.1999317297241193  0.8486210480498122
  0.1402732806005023  0.0379353992957399  0.0395087577134220
  0.0875260917962053  0.1269146470778174  0.8452807762822024
  0.5216060341112385  0.5286837906857852  0.0058477669837186
  0.4856443833684163  0.9297640424187976  0.8495521678737894
  0.9626938416435320  0.2263260895705297  0.8647843343440139
  0.4463786131994491  0.0269974806615351  0.9910207726174683
  0.9367449228111687  0.1166233820329608  0.1351306488099768
  0.6461110724143492  0.0115606008517835  0.0781547175862115
  0.8046258244772181  0.3110477055295989  0.0771196871014962
  0.7681725382088412  0.9062044763827340  0.9267579764149583
  0.8455942212373028  0.1118868702782236  0.1013812331132347
  0.3580011742883453  0.0107766948702433  0.9202768170779678
  0.1454816399545321  0.0647777747348619  0.8822899017355298
  0.2049038292187339  0.2032052654849865  0.0234114300609871
  0.4095516407344073  0.1483270208725787  0.9451326971581597
  0.6342162173976963  0.2185430584430217  0.9634509093422640
  0.5879591782895205  0.1136668601290683  0.9837670559514339
  0.3999011046577508  0.1145494201791259  0.0329841328420705
  0.7726001282746192  0.1594107869227345  0.1020718763576010
  0.1181206377926756  0.2907271316727056  0.9723785936765827
  0.1007472215676772  0.1908156634591317  0.9893728613682736
  0.8781790603911365  0.3222460797682654  0.9842213884974653
  0.0078417575094926  0.7948229889176286  0.8468901993828049
  0.7884065905583657  0.2468067629911831  0.0769639062366346
  0.0863097869056983  0.3951007368350666  0.8625887494544996
  0.2796930790671947  0.2613028145883284  0.0428238549805876
  0.6369261117741275  0.5378044113944708  0.0372197566986187
  0.3499243908228405  0.3504653765292753  0.1021657830293671
  0.3962796766442481  0.1407937654246329  0.0000752429113879
  0.3199879684968833  0.0801215062143212  0.0878336113234829
  0.5391770599909562  0.2199219239206562  0.8332001308839521
  0.9177617467679037  0.3487717115130278  0.0548030602711383
  0.8549238711633309  0.1691908365544655  0.0131104127871825
  0.9198905212817793  0.3070966822786647  0.9021194930907602
  0.2146036060878440  0.9343152574487644  0.8410513396639600
  0.5413850200139899  0.7353938213489957  0.1625803492356983
  0.9600368327904629  0.4330126289413292  0.0139051673950721
  0.3816355833286733  0.4973239922577863  0.8816300585774989
  0.5219463305414549  0.3771033947435675  0.2552587490812283
  0.4136843632267190  0.2008085441410111  0.9608737627472566
  0.4502930296741019  0.6096437015768662  0.0267267697052161
  0.8241440043861654  0.1938760840075570  0.9921426139214433
  0.6664851050886853  0.3550841072755456  0.8905129447454507
  0.7835964114354219  0.5918234868763782  0.0336811994655987
  0.9172313487179199  0.3554588944790864  0.9280252563739361
  0.7944034651732435  0.1905501139165318  0.0450454632676204
  0.1926950271434303  0.1404772924317648  0.8634612889182417
  0.7806843854107105  0.2547495717743274  0.8684976261018634
  0.8835909867662691  0.3028955022512662  0.8659887116889214
  0.0167203456158237  0.3474708739435675  0.8219478331975645
  0.3207898905056651  0.4429051881275335  0.8699783785278320
  0.5477105790057348  0.2229187949270877  0.9050322511697988
  0.7825130414736022  0.7357672316463290  0.0858513885131698
  0.6883238508636257  0.3005433198549838  0.9955163814371141
  0.4102059147289896  0.2682218094696506  0.9534880016289916
  0.5760672327018336  0.7565133718552772  0.2040507050908391
  0.7381095254728366  0.6095810571169147  0.0609420897344079
  0.6192917551228272  0.2709972466040943  0.9897207239313330
  0.9245489489975657  0.7756986846700531  0.0190066208428038
  0.8292951548617521  0.2754585418878784  0.1407706378070848
  0.0333447229830791  0.3305202970106787  0.0632926516786428
  0.1928421020605940  0.4181830956014511  0.0106238366547143
  0.1751497003811736  0.4299009161928068  0.1919089848467827
  0.2578779679343862  0.5540444012657221  0.9335423932001718
  0.0522862298529940  0.4930903246675586  0.0873055525208632
  0.5853018799309758  0.4409799681306151  0.9338976984167853
  0.5983988156010521  0.8271720587408711  0.0474264227794821
  0.3271027298094943  0.4053706700277517  0.8932597385222480
  0.4003952233146630  0.8496380590572712  0.8901525104168903
  0.0244248230333508  0.1711516262602559  0.0084956224082308
  0.9918948474354944  0.5995010682677223  0.0451214515041504
  0.0311466353665978  0.4366221711937767  0.2610344689400245
  0.7267354472395456  0.8478972009605216  0.0530637645703583
  0.2150830473909105  0.7902563133596207  0.0752980224267565
  0.2127317443519882  0.6565596630079096  0.8512507206878049
  0.2175001624712826  0.6660639738584423  0.9356345970477883
  0.3715012335632202  0.4208361265991302  0.9181498734604722
  0.2682362562277933  0.4121098920668649  0.9778130669973011
  0.2736739568617876  0.2396517000934850  0.9255833183999207
  0.7209896804467316  0.7103950579259221  0.9613541569992751
  0.8857694207995894  0.3692965747962502  0.0350054915048606
  0.4998334721720937  0.3184419609097809  0.1109332450746890
  0.2948603932906221  0.4270865513778084  0.0057041868622285
  0.7345979499324925  0.0764871562285731  0.0379260365925894
  0.0294537802078269  0.4808292399143505  0.9281343541705310
  0.9654375818029368  0.6872382676964116  0.9434039830748934
  0.8695601167236110  0.5221415460887985  0.1251042204062477
  0.5203464543729321  0.7982048703968777  0.1450711646970671
  0.0151370335060700  0.6389555295401247  0.8442529269304324
  0.8202636850071947  0.6674525285355689  0.9727171913507999
  0.5274484025413845  0.4623925076481225  0.9169722131080750
  0.4283464600385115  0.5645848526301079  0.9560654982008064
  0.0741107621604968  0.9913892177293808  0.9638459505326578
  0.3855840620247475  0.7768051469398868  0.9885311051589211
  0.3428631353509140  0.6799161465081746  0.1148258603319782
  0.9008016884700073  0.6700790781516791  0.0546765442218692
  0.4873979812186815  0.8538663239664701  0.0392797221701173
  0.6361265510525401  0.7131154887268469  0.9811948885689296
  0.8789990159767999  0.5714037841395374  0.8669755824158288
  0.9759927003732787  0.8837379352757524  0.6758915873114248
  0.7746311760830492  0.6109912997189499  0.0067623586907525
  0.3952623926551103  0.8216424293141855  0.0619975933622792
  0.9984137244803729  0.8905052536287463  0.2022225337720627
  0.5593333283159102  0.9284973704056283  0.0519131393568861
  0.5087716019914318  0.3594643743708734  0.9419673928518928
  0.4592069162841046  0.9254690397501039  0.9421773412308596
  0.4922311267428928  0.0605716597614342  0.9141138214054723
  0.6210213597222904  0.6494672964249606  0.0861094260201253
  0.6866288913301622  0.5731677312868791  0.9449854920076434
  0.8266645712232745  0.7952390978844174  0.1017762202276750
  0.8925418596812688  0.8470884126361786  0.1384417111305322
  0.9248788127831415  0.0042255528346485  0.8923751630282003
  0.7748377907014629  0.2946379618721427  0.9406892013578657
  0.0480263535327642  0.8907105933115760  0.9560151266418586
  0.5101142255905872  0.6840585999530300  0.9686222573444476
  0.6131945229376886  0.1893247443012614  0.9904088691643360
  0.3987691125012554  0.9387265343545331  0.8466475999819688
  0.3566635367418926  0.8728803525342708  0.9383532594361284
  0.7246033863576830  0.7412905555854361  0.0836348250671748
  0.4443798437438817  0.6289959524921298  0.9177297619363164
  0.9570422868938372  0.5788739900913801  0.9652459764840624
  0.6744026263645070  0.1014417471526291  0.9818139615594786
  0.7498407905415366  0.9318319195666739  0.1259950237318286
  0.4950511599705868  0.9877547018902261  0.9089606813084871
  0.6801651009393144  0.6350120978293151  0.0369136693726934
  0.5943190380977833  0.8521031980613984  0.1399855007837750
  0.2934955919928390  0.0172782544658477  0.1204726392696812
  0.3787923404613499  0.4774453760979359  0.9294834324522646
  0.5849753386021147  0.1979419886338424  0.9419513661062184
  0.1954175701907850  0.0436473497481783  0.0968871731809806
  0.7106559461238843  0.2281140542857512  0.1507574955010937
  0.6512266636990972  0.2612143908306558  0.0158915680903535
  0.1891262571851738  0.6609021948286093  0.0034112843494359
  0.3093751294652187  0.4483981135490794  0.0914382955802012
  0.6680543906096327  0.1140045298976049  0.2027887541409969
  0.6136568924533892  0.0109944472370073  0.8024330476721736
  0.5446036173053833  0.9343115482922009  0.9609781721206623
  0.7725150976453652  0.0204065854467301  0.9779895457906541
  0.9734092087236098  0.9451667931227651  0.9630093091469640
  0.1887509439532464  0.9444716996907696  0.9885994478719904
  0.0877658835973339  0.8380225719655702  0.1906029036542283
  0.0588209059044618  0.8732006030955942  0.1131827367579242
  0.6714794636348134  0.1964705042002025  0.1262210624595500
  0.4760982934839569  0.6752175121784922  0.0926196312526667
  0.6520263216715355  0.0131044582498368  0.0387472839533123
  0.6926951432595805  0.9827038221296538  0.0987180104059670
  0.2330170926848886  0.0627088733496190  0.0369946125629440
  0.7539472209792788  0.9313888623313671  0.0049577269741077
  0.8223695768028680  0.2332432857546327  0.1683816045388588
  0.4130518370177514  0.1172217573869829  0.1148748589090419
  0.6514858765068908  0.8099765876892672  0.1287153599724670
  0.1069424577005901  0.4266802983525406  0.1784928439702382
  0.0760190100125570  0.2171766848958356  0.9045004635536271
  0.5603956755593905  0.4547028861661545  0.0521443257006421
  0.6387089186275203  0.1904457417116155  0.9059200961667870
  0.4005744586244074  0.0172623235042215  0.1613436248049537
  0.3688383810747219  0.0999064420958901  0.0612879305801540
  0.5994502413142909  0.8820852239532432  0.0615816770790975
  0.5798407778627592  0.1336902823449000  0.0136325537419907
  0.7565688341620566  0.1849057868770563  0.9325575780785977
  0.6990730018942281  0.1925254221058071  0.7825809320478250
  0.7231878835995652  0.7130202921894605  0.9212345815031198
  0.7335892358603177  0.1091627632859729  0.0898148467975421
  0.8302438380617573  0.0704359308309941  0.9637933256272607
  0.9140256453539298  0.8000972181512751  0.0682966378927466
  0.3733475431075843  0.0767843466605602  0.9497568956730112
  0.9821359988573253  0.2761300655759084  0.8958349809256683
  0.2692091092960103  0.0519619550952828  0.9604650066280805
  0.3329148972744244  0.2393838016086432  0.0701404583534513
  0.7110333336957558  0.1116297050066924  0.8222336827959528
  0.1908268665089596  0.2345839787284376  0.0914901002245080
  0.4923257732182306  0.2065977045408218  0.8987710730309296
  0.1344770878656770  0.1563764401107978  0.0393643047527461
  0.6226083770992759  0.4135767163833984  0.9694565860430071
  0.6580101195514206  0.2672552834702002  0.1405202953890798
  0.5588268667837225  0.0663037897819780  0.0495735050040731
  0.7184229306514253  0.6182005347347149  0.9711289316867695
  0.0433357295520984  0.1881912757279242  0.8814954401047637
  0.9389240864444564  0.4568716981893259  0.9825267072041260
  0.0878426098814307  0.0264209910433043  0.9319382708235998
  0.4824749353210014  0.1634897364888577  0.9471198431741681
  0.2261378132671495  0.2070981793570041  0.9105895449171396
  0.3895097709276543  0.9764271649067574  0.1232158911642341
  0.5311247767723450  0.0564192112607888  0.8926499539290191
  0.6905101185840506  0.4522806549126015  0.1947741242199694
  0.6760871558454847  0.3162731282744501  0.1557297532789751
  0.0169372347277077  0.9916330306957999  0.2585439062184442
  0.7134979117294138  0.3426777689208718  0.8671390891033458
  0.8467343573699088  0.1471749602365994  0.8860835224799130
  0.7582003488319825  0.0227479652043608  0.1435783579700048
  0.9467750910356503  0.9257894372099056  0.0572205326005374
  0.9426048301871846  0.0150648808728339  0.1279906881630863
  0.3837734448796180  0.1133230579763346  0.8650636105235859
  0.0189845108145180  0.1427230598829882  0.9567284997469513
  0.4635499563720001  0.4333956609316745  0.9220128795192730
  0.2288334681975949  0.3436709047056357  0.9311588567126075
  0.9887851143772638  0.0186292052042752  0.0460665899236488
  0.7726636185436918  0.3853070900905529  0.0013751518369035
  0.3440183509609526  0.5097002312178330  0.8002090084038332
  0.7607870376640683  0.6840873455938763  0.0659930288856310
  0.8445979078477770  0.1211864963485375  0.9737422285486603
  0.0384938554589239  0.4308171050208787  0.1408831080438077
  0.0227727932485164  0.4449467611467235  0.0083277577387187
  0.3140741264219137  0.1597466712478716  0.8635342164724202
  0.2353699680200160  0.4963322098983004  0.0829459580710663
  0.0655713555765749  0.4528560156280930  0.0304801344453512
  0.3394482372532253  0.8594501899483048  0.1395554521313380
  0.5534969804177933  0.2972003575668015  0.9798641638298565
  0.5393825664349617  0.0311493743810003  0.1706918700085278
  0.3832930188268146  0.4145933493931592  0.1612593607485472
  0.5967076069799589  0.5468625018346613  0.0550667140052949
  0.9226955484641958  0.2899111609971003  0.0778312020992286
  0.1821544557878854  0.0619996693909891  0.0191787572802466
  0.0910641853224508  0.4066468002750897  0.9256252092747578
  0.9799259452906378  0.2947918188733908  0.9311593970336487
  0.8337204471264384  0.0331577812171422  0.8857319593833178
  0.7150941943544185  0.7541815874756946  0.9429673003273596
  0.7193033150762689  0.5927506216673760  0.1246630097914716
  0.2338508529526383  0.7113763012633051  0.8899167182389131
  0.1338922878517566  0.5498436165420362  0.9318594554152331
  0.0337146804468475  0.0457285817260771  0.9676631182523917
  0.2702068260451650  0.8740565566206695  0.1329407352177081
  0.7436412912292494  0.6709538959990851  0.9913571679007425
  0.2688676934517236  0.1993243454686023  0.1665636876753665
  0.4169488354247457  0.3276511460342399  0.8217887370621977
  0.4697298786838968  0.5185911939272169  0.0621554898785759
  0.5733902782759568  0.5719741718363780  0.0359670330620608
  0.8055493113349532  0.6710667913557400  0.0065279775691658
  0.0473114532438472  0.1731375747272046  0.0472542440059664
  0.7339945008867523  0.8783031566580606  0.9528030523979373
  0.5677542896911497  0.6030021756289530  0.1713339694390993
  0.1542246667985362  0.5887704680106639  0.8658278741266937
  0.2514546955536898  0.1685534037650815  0.9712234189557077
  0.4229802760154082  0.5461214491464611  0.9881470063380369
  0.1345107968226870  0.5205399474177543  0.1755745850600327
  0.5116503174751218  0.4687254975576192  0.0027954341237381
  0.5629319359432802  0.6920387284172161  0.9784552761085571
  0.3163001109342503  0.6496285348577273  0.9893696737006413
  0.6935550122670281  0.5876325611320831  0.0801497986630506
  0.1667344821722129  0.7089803948431702  0.0390822692645999
  0.8923510580039414  0.5907061800500000  0.1320785901272256
  0.9868961846597440  0.5556464423714832  0.0011812156713804
  0.8592712820825955  0.6804345763532972  0.0194367616647279
  0.0692130312691144  0.6253228852643229  0.9718323669321004
  0.0258496279735098  0.7078279407598913  0.0037872269663660
  0.4254541521618739  0.7196932558375732  0.1358192263152625
  0.2714982700523583  0.7386790478167411  0.0721715430310749
  0.7324309557380324  0.7040495869798719  0.0295243212196507
  0.5300012971463512  0.2909341083801009  0.0405760048192053
  0.5731840327066883  0.7303435608093414  0.0277661405994968
  0.5496990272472582  0.6265920072760874  0.0455887011219801
  0.4591453260550018  0.5714602546078645  0.9272291704356537
  0.6216677281093081  0.5251656404198982  0.9841708533784228
  0.8366878165905259  0.5453658432783218  0.0727635095458273
  0.6117136154392190  0.6836202109815646  0.1435524662644307
  0.7885034582659409  0.6953044145907487  0.1286634955405441
  0.0255055696056652  0.6705610988462595  0.0419435386128847
  0.3381647970248830  0.5188375325242620  0.9275430503403734
  0.5111044519850482  0.5080172707647977  0.0906201640218316
  0.3403724810497287  0.5497682600268938  0.0178095184679064
  0.2567497897421754  0.7367487713411252  0.0036704623116602
  0.5384160777984759  0.0150141086048778  0.9901577138227974
  0.5624512141347352  0.4386482288841905  0.8901096419522676
  0.8704338078447778  0.6556515586944790  0.9585767671052894
  0.8181693171758094  0.3952507288322061  0.0840983310423387
  0.7077712357044493  0.6829865229247984  0.1850101339263957
  0.0257945108737767  0.7218068900659599  0.0354007045989521
  0.0114003558559444  0.6093248000991450  0.9871024562975068
  0.8804199170580213  0.1188018116635778  0.0742711946275925
  0.7285404066818035  0.9640413539558141  0.9133204718484196
  0.0655213509200013  0.6018887361203782  0.0651850634842870
  0.3698038840598277  0.1391243170823464  0.8095501418032148
  0.1315881437676928  0.0586488981421813  0.9341379951906033
  0.6189934398588489  0.8593129668623475  0.8346577771834996
  0.5428381021984728  0.9885694424473426  0.0546068721873518
  0.5934923583840302  0.5919342205512370  0.1448367876078220
  0.7155488662206045  0.5111284417506995  0.0587111839928620
  0.8699231830228309  0.7407467156960535  0.8541090452204989
  0.7005397892372253  0.6919821807219784  0.1591602716251835
  0.1874254640720029  0.6560707530577097  0.0319927664665878
  0.6760118019478129  0.9217647961526669  0.9123528395213020
  0.1765837902283454  0.8562312962380724  0.1505716066644850
  0.9231096579549520  0.8186190618609845  0.1213526983400059
  0.5928589213857095  0.9641977791107416  0.0271712333288838
  0.8181892382304039  0.9481258567769925  0.0996200417293092
  0.3449533917094405  0.3490959560045928  0.9134349621548159
  0.3837304740321659  0.8552043158137960  0.1460306321571276
  0.5220243099411283  0.0653985154661782  0.9403076113604910
  0.7186651982790946  0.9412672187898395  0.9372467676532888
  0.5304321950100681  0.7317828791242040  0.0969499947548647
  0.7129019212027394  0.8961571491403392  0.9969909770458765
  0.7863903954415932  0.9954710313237366  0.0803977079694758
  0.7110061034767977  0.0527634424392119  0.8918339700796913
  0.9635742659473008  0.8645097798508796  0.1026202107811740
  0.9213214696872017  0.8982097366273252  0.1609784874907693
  0.1609178787328448  0.7664415639310797  0.9909689531859738
  0.3427887665357630  0.9197540073728999  0.9708613395525801
  0.2514057097226555  0.8378637626178905  0.9976254475452331
  0.1499658336723344  0.2063384495242837  0.9733840989880440
  0.0497412117359623  0.9954401317863423  0.1430069743464333
  0.2347263716526665  0.9909510470507918  0.0501347820164943
  0.4648009102843645  0.8141326157317214  0.9275649751847398
  0.5392853087080804  0.7628082807999300  0.1195441994875697
  0.0097013702015118  0.2055967671992906  0.8435785863999762
  0.8235233087480598  0.8799246666613341  0.0390725883444167
  0.3235757684313419  0.0858868949189722  0.9409391508787034
  0.6371157722405093  0.9649019627343609  0.1530957490601567
  0.7341518325551231  0.0690491514613406  0.9819711731963997
  0.0477197462017897  0.7497247747706386  0.9116410460568907
  0.7959192242132698  0.0894382186397283  0.2010384605865661
  0.1719294266937076  0.9823058196455958  0.0580691079466620
  0.3138808700847842  0.9863272969674981  0.0197803424767796
  0.0751464913619775  0.4287623450598577  0.0855213877221044
  0.1254708845920558  0.6950740002281033  0.0625957633065774
  0.4333592119724193  0.0032714430491962  0.0163346218026424
  0.2082701751525812  0.3336595146454353  0.9777977614244948
  0.2734127910423236  0.2286639302114128  0.1345246692162171
  0.5098194166788825  0.5920662886481660  0.0340827348047471
  0.6730952822498842  0.0392680670351249  0.1205950106240249
  0.3299074693297309  0.0575951374437857  0.1163978957807473
  0.7302678630716958  0.8993473619061799  0.1522007407259161
  0.1513468000477179  0.0352532019146617  0.1170439467915688
  0.0801772640376081  0.0301303800235532  0.0487840431581155
  0.0352040086220716  0.9530495460436690  0.9709057032241938
  0.2252258431195866  0.0084516359433158  0.0760616101981298
  0.5765353548912275  0.0616278399630558  0.9456062633724150
  0.1661904871363120  0.0625117829483064  0.1842826583017898
  0.5091427920217213  0.9591215252430841  0.9357720657745160
  0.4124967969966861  0.0048330315590387  0.8977160754972189
  0.5023038800865185  0.9540637018591169  0.0462254419764338
  0.6737638332392234  0.9553769616188390  0.0723093798961680
  0.7610307838836688  0.2075528850221686  0.0714307938396758
  0.8624930194285301  0.9154649647386767  0.8465504924844428
  0.8168162472568203  0.1350548614897067  0.2123857765821053
  0.1781447434329006  0.0642703176811344  0.2149579389899429
  0.3826681556408818  0.0882550349750515  0.0947690474207224
  0.4452476897365166  0.8124865317556736  0.2030894627473531
  0.5979832000405578  0.1114697042690518  0.0633286499474642
  0.4821370793964566  0.8775857510387192  0.0100725495582970
  0.7071819969962548  0.0359603929686367  0.3192107298478157
  0.6295112909607575  0.4782280289084311  0.0168155268162752
  0.7304245262131607  0.1151080506693390  0.8569070213281915
  0.5033125042315021  0.0809073377150048  0.0282221292285909
  0.8811738735767604  0.1347264198555377  0.1227387518528337
  0.5495614640063571  0.0191473300583457  0.1418160934883236
  0.7190498555207013  0.9913501734263496  0.0728128457494920
  0.1113918367940741  0.3608150576535314  0.8899833979821148
  0.7831406419259949  0.2701418426681212  0.1689232302645835
  0.4383088455681263  0.1517760275926227  0.9797720345406389
  0.0189880583897909  0.9164318573308382  0.1192289425260912
  0.4859967178141742  0.0813731455789146  0.8822063997398853
  0.2723042090031065  0.0839306662865520  0.0600516924273966
  0.8638395448427791  0.3290440555917419  0.0758676299417156
  0.4327792393864722  0.3383960924900095  0.0095926649655942
  0.7445605583004670  0.2066277772429706  0.0440743653238984
  0.9208735400750274  0.1553591681584550  0.0258201559026998
  0.3356407091018797  0.0724295028370198  0.0423276245262967
  0.4214315905179629  0.3998974059090628  0.8716432852568144
  0.6948428220995663  0.1243947808733228  0.9193032295368058
  0.9007698109273123  0.2949625186622820  0.9417717685975517
  0.0536261901343500  0.0703838781098651  0.9384041052066731
  0.0260690577166778  0.1657396662463114  0.0760982676927237
  0.9109543117839115  0.2575752613869368  0.0150374691276818
  0.0744039107476029  0.1768806522796179  0.9615154887469828
  0.1613187083276262  0.1227495070280661  0.2130542476024896
  0.8178985033067989  0.1894515101979996  0.1460863561942265
  0.4073501146823636  0.4431287443530409  0.0900457085858875
  0.5240318753084459  0.3765023860014255  0.1204950570260288
  0.8974911378779248  0.2631324906399186  0.9677018420679611
  0.8267423984781190  0.3341374704393294  0.9980738486227585
  0.1657450361644417  0.0295739110544845  0.1447687394626544
  0.1698609117636665  0.5192434732221635  0.1498092652172376
  0.0542113523394795  0.6663503000991425  0.9427756383353175
  0.7635621101187534  0.3299362785360593  0.9863833662726270
  0.3562460064039577  0.1909498663309945  0.9376637052125814
  0.3591476853954947  0.4407606202598933  0.9513244002656578
  0.2433906918391573  0.2869505629976294  0.9996056754559015
  0.5272348806739903  0.2853260956072328  0.1418506975753401
  0.2728488399891771  0.2387637701903949  0.0055430120372524
  0.2391570697381953  0.2078772507109564  0.0502660417769212
  0.6923668330120768  0.1320187528528886  0.9534764855173870
  0.7648843515636304  0.5146428634505232  0.1621263801247831
  0.1403652231925709  0.3558261908464593  0.2320608680934048
  0.7260113336119295  0.9301390591690332  0.0577310268670195
  0.0423547181621946  0.9276628768316124  0.1540297844347985
  0.0588831558318135  0.1307903840484120  0.8823472408269063
  0.1556637210871749  0.5402826697045113  0.8796019589718554
  0.9040205979354160  0.7429514493728321  0.9942292392736380
  0.5837649953154699  0.2753849859628633  0.1390538389225900
  0.4252471507368156  0.1583379863266972  0.0567912231278088
  0.3176163111757733  0.5638198243644551  0.0704155622637978
  0.6126170660473941  0.6505424449055875  0.8659578450524298
  0.7448024961112437  0.3021401881928057  0.0809087443555683
  0.6393271284292701  0.4318143159350522  0.0486162382610796
  0.6754415715697838  0.3862740171003995  0.0322331481162904
  0.0196715022886974  0.1627545398580455  0.9054976827962792
  0.3657943652982039  0.4481232083187645  0.8888470386024023
  0.3747342022516447  0.3940303294966646  0.1183062392943205
  0.1863341357008846  0.5139523169612644  0.8987956757545317
  0.1334943061858857  0.6474295403221577  0.9874376890432902
  0.1497657562285455  0.3578420183177839  0.9867292623836453
  0.2785334969799877  0.2469334196980657  0.1755659821957939
  0.5794312632222651  0.2472600877879121  0.9763551820825657
  0.0997190614419385  0.4548391845010669  0.1504710281717017
  0.5802281562585938  0.4268168736853596  0.1433937817389686
  0.5602308611354024  0.4967008045173680  0.0259993376053570
  0.5518778300019237  0.5658243144524656  0.9871739563579224
  0.5903579457219842  0.6696310720270737  0.2173565607561253
  0.5622582917244862  0.4064154518326867  0.0968085649360849
  0.7392192138257476  0.7140914724229734  0.1084615581605223
  0.7680895433784619  0.7678409611511353  0.9654327182607700
  0.9456020737736546  0.6521646070875254  0.0349050808720746
  0.9618862987056445  0.2724684661750496  0.0050892068896843
  0.7135169546207069  0.8824805814561946  0.9239336735584318
  0.5104278000631517  0.2166431521150793  0.0773311679754594
  0.1781027585133524  0.6176615738457595  0.9759427104311934
  0.4115661332122501  0.3077208530486177  0.0705024143483600
  0.2921477049733422  0.4911457376760044  0.0588950804317907
  0.5554496955385814  0.6560433234007592  0.1222196956112369
  0.5640105884214002  0.7648351309418969  0.8123975678237974
  0.5954671390004949  0.7356628504252944  0.1643309363556955
  0.6743718041403570  0.8072231180095092  0.0770000316083346
  0.8918736946868410  0.4709719580479827  0.8317648917773968
  0.8699567815214694  0.5285503976436494  0.9189861379333338
  0.7741177796505035  0.0036538225316079  0.0333209751751000
  0.1389563639906111  0.5643209438287178  0.9874453284086828
  0.3361932001730196  0.5118067984969799  0.0810410394082262
  0.1688907907323890  0.8931868151467760  0.9615225951163626
  0.1770460546891309  0.8985415009084894  0.1011930184911666
  0.2416457613126081  0.4753138801363824  0.9433293967023817
  0.7305373797307710  0.4821038824696160  0.0058377040032959
  0.7337321427683620  0.7958032377656257  0.0984333481631684
  0.6477043915216006  0.6850343882085957  0.0061592028911551
  0.7939756236866736  0.5301829026915306  0.1894887479769843
  0.4679158661991990  0.6391120121936261  0.9703981195565509
  0.6412097176776509  0.7343601776579414  0.9037332255387934
  0.6374805397631125  0.7621847955662796  0.1387383519062322
  0.1725983084681836  0.6710709733347892  0.8820056893095918
  0.0275926381917412  0.8237856382494342  0.0090038792448866
  0.7763724828899566  0.9037811608681585  0.0680522277033940
  0.3975295084858306  0.7707495183667766  0.9299882995114227
  0.1556807834828234  0.5353827799019120  0.0129793626759592
  0.3946862303504508  0.6632980369325430  0.0407696352458768
  0.4627720646281737  0.8743445897043199  0.9216770633628943
  0.5271196659359504  0.4425001622900609  0.0298052180677960
  0.3344699183381176  0.8097557440939168  0.1026956220982734
  0.4761929295710790  0.9979458268626844  0.2461945565712151
  0.5177719654884905  0.7649887603773013  0.1944057737827471
  0.5300865849727507  0.6452046200773455  0.1609131723912879
  0.4581715611515823  0.6295584899645899  0.0005418775516310
  0.0025494561638065  0.6324222130004352  0.8733337318472292
  0.0637614821508445  0.8509638467152015  0.0656260518855148
  0.9556153060375392  0.5533546882627025  0.0758549937842256
  0.2707788485232177  0.8559517325111936  0.1587765736703862
  0.3575765005359491  0.7506939802480740  0.9465950298841568
  0.2956413864428131  0.7979633724375732  0.0764336421294638