super cell:13X13X26                     
  0.965520934281071     
    46.0918769143074201    0.0000000000000000    0.0000000000000000
     0.0000000000000000   46.0918769143074201    0.0000000000000000
     0.0000000000000000    0.0000000000000000   92.1837538286148401
    8788
Direct
  0.9019018715502212  0.9294474611718607  0.0065329061067846
  0.7891423128881805  0.5127524290037966  0.9075158810579323
  0.3733828594545601  0.3095189152891575  0.1204263007449242
  0.4237748703147371  0.6525562827108694  0.8008295416096727
  0.7829569038632712  0.7011324715323596  0.9858001785604950
  0.3817534236564784  0.8600388289955810  0.8939537570529233
  0.4622439117664330  0.4350048023048823  0.9236103464106423
  0.2296107229601930  0.9419077137878940  0.8590746940269725
  0.8210441051808777  0.4174416996365002  0.6749864300000090
  0.6532715702542771  0.2007716233716318  0.9237468491872022
  0.4596019406023215  0.9911624246120104  0.9708358143749736
  0.2754852652668135  0.9478116147351598  0.9181275228248245
  0.8209238019583875  0.9968974672476268  0.0393848934038707
  0.1305225655434158  0.3271741561918085  0.9973087967613066
  0.8519819111534584  0.8236776178296974  0.9882784038602144
  0.4556323750158572  0.1675753503512752  0.0816041026214062
  0.1565714565632143  0.6580444981533595  0.8261638545008232
  0.2906680458025530  0.3031754917005212  0.0422327896572702
  0.4027722201459498  0.4124371880957593  0.8285489930308932
  0.5684290006301402  0.0486493982735376  0.0970698508091768
  0.3803933617012739  0.3567091043810297  0.9704520545262116
  0.5721529028341655  0.2082707611647354  0.9752276745995988
  0.6350476689026123  0.9228279184091028  0.0373320384972662
  0.5602394308359416  0.9457244995282992  0.9604514273583367
  0.8937332197312701  0.2310118491798174  0.9184898518820823
  0.9673803715611581  0.2706800133712288  0.0927757737182253
  0.9174804373170828  0.2663379152252999  0.7937282799823998
  0.1442385101087265  0.2959390620566855  0.0482863655327267
  0.2078595699768573  0.0390285527544860  0.7080551245884733
  0.5433393028768021  0.2162877225343745  0.0459640547472680
  0.5473183117754918  0.4122930879699703  0.9369115940704303
  0.3767102210461200  0.1107859725652770  0.8036225198407142
  0.0944029785323044  0.0415432156290207  0.0487110367771391
  0.3921813691407805  0.5214180127918882  0.6746085592768908
  0.1413330887527604  0.0685259045300537  0.8940938446867689
  0.2352024885408763  0.8496161749553404  0.9528954662533348
  0.4153662653037119  0.1735269901302708  0.7936049828831730
  0.8514291232219062  0.2517707758110918  0.0303359019884261
  0.4496747602722154  0.8830491054171258  0.9469542892183070
  0.8684141824491127  0.8795377122922976  0.7242448169624068
  0.2583088582796595  0.2477130086537227  0.9537393878020665
  0.5484285037247895  0.2321773201101629  0.9128097729559244
  0.6436681598559046  0.1381805847574014  0.0098560014385937
  0.1794841428694967  0.1191787842087528  0.0547339536230289
  0.2880986470251839  0.3112881928493555  0.1127341870914487
  0.7164673326978848  0.1721583360938244  0.0630155085916402
  0.5843610637315063  0.7620761333577608  0.0287040798417551
  0.6843204716086156  0.3266731890242256  0.8824942421367291
  0.3227631841335547  0.0093694225046217  0.7632984271811154
  0.7761127186162049  0.3874418763386338  0.0720758357983533
  0.0340406319065026  0.1956913201787661  0.0609836932299213
  0.5509630984584547  0.1256219868730258  0.9953872817806535
  0.0617935808704582  0.4699395586660264  0.0706776859971576
  0.0597644684827487  0.5581326528713444  0.9433417843605315
  0.9881284680536294  0.4967211603009358  0.0211539925582214
  0.1480471407065828  0.3907152357839829  0.9649500642096192
  0.6352838889997487  0.7385871465490060  0.9338327771862475
  0.0829789123095717  0.2348394035235422  0.9575822334821992
  0.5998020669341584  0.0951864307164770  0.0767161561575663
  0.1911076756377037  0.1056820387852353  0.9374437013936670
  0.3010530374252907  0.5288026157425706  0.8211743451478835
  0.8991551097582723  0.5022409268903915  0.7030051056650845
  0.8530914270753203  0.8371744618285208  0.8027940501767449
  0.5251639426098020  0.3910779035633372  0.6399901171213719
  0.8942154317856190  0.2756936620644732  0.9431632745098546
  0.7868724898111440  0.2154643842812692  0.7376566118013750
  0.5987200693142808  0.0582939669159417  0.9729331608201512
  0.0215137920062754  0.1307146075866052  0.0148534063726084
  0.4575988151453780  0.4582316171636509  0.0728501329887963
  0.7212121291330708  0.7247134975036748  0.6811575508540086
  0.1511295466748640  0.3317891615020445  0.0231940163318870
  0.6973265450189835  0.4903860388017457  0.8544766388123513
  0.5324495357624711  0.9328801600424449  0.8737536835179291
  0.2494354402749578  0.8878277014378604  0.7765410617892119
  0.1790532319970632  0.3873937749650111  0.8196821435225752
  0.4385232150718664  0.1419515824073392  0.9366011239052959
  0.9467609454001537  0.6982554179764733  0.6082194874754753
  0.8997755241101307  0.0311978983264923  0.8340191286837725
  0.9998695018722220  0.2223502629609647  0.0825877723502955
  0.9661604374965607  0.2800077643933752  0.8557596073502171
  0.0233775527294322  0.1244399863336654  0.0524373220407433
  0.7466126873439128  0.5119123893438097  0.9626392331334568
  0.4379249137269902  0.3524714318527786  0.8942198668065858
  0.4204858605592355  0.4003035579086555  0.9815619842450446
  0.1890003570257957  0.9352799656528628  0.7314224873843641
  0.1482045842075463  0.7020336626760331  0.0662537817384274
  0.5853054123424190  0.4491448001861312  0.8647535811603758
  0.6919752832464092  0.5693312394852369  0.9288501360511848
  0.8775868930199598  0.4987189375112584  0.1353095042054007
  0.1352437903969622  0.1600799036743220  0.0415200083674717
  0.1441171487759435  0.4497627686601334  0.9025837203943392
  0.9483928197393892  0.9001574405003454  0.9769682987231038
  0.0663705695446175  0.7815371522845109  0.7697823864817790
  0.0323269226388940  0.7323365813324102  0.0628979051669370
  0.2586943005969062  0.4330438973413239  0.0956717501470318
  0.1113925658308110  0.3524371582687495  0.0598357758853686
  0.9271520656670335  0.6190785066298982  0.0060823280365674
  0.0311658323393975  0.8924636018650550  0.9022955359806450
  0.7158515071980602  0.8414906026658721  0.9339204742593559
  0.5940401686337577  0.5448598911900560  0.0467717818472195
  0.3308636442183712  0.5183244525664515  0.0259966044482077
  0.9944702023552153  0.5143802935931285  0.8420953742416448
  0.9757224464815636  0.0918842712178629  0.9998153605718699
  0.0996093976293128  0.7486367606002758  0.7124718335035617
  0.1124891487504261  0.6111216107246820  0.9977302411121169
  0.8797654709326046  0.8972017480285819  0.1349673138366493
  0.2583339556822851  0.6334405661157142  0.0121545097567250
  0.2826135941199811  0.7077586727702213  0.0110591318938343
  0.0283123467739268  0.4829464150198861  0.0468397559554690
  0.4903998317798450  0.2396585416892572  0.9197556895436604
  0.8779990954461721  0.4964156099209613  0.9824672512663704
  0.8376454338037490  0.3766159415552260  0.1119584119104233
  0.7480995589344829  0.2466586722970398  0.9503307343161252
  0.0288769953470195  0.8438715505370761  0.8792423853561016
  0.7094192058409896  0.2637529978574779  0.0275531151304557
  0.4079875258041942  0.7493410998082860  0.7942700379007245
  0.6064988414108848  0.6921860768073892  0.0090120553209860
  0.5190308340566592  0.3603169457697646  0.9399762809727091
  0.9266690080023556  0.5785402087658978  0.9540667919058724
  0.2990868260669006  0.6914419365603912  0.9203545016637247
  0.3973675641430756  0.7792006588989914  0.0600242385159715
  0.1664210360799664  0.4103245970917920  0.8489772523420112
  0.4617266960343330  0.8054823964745078  0.9631811111295747
  0.8888087432541117  0.9516560791445273  0.9082513417408603
  0.5717768304062747  0.6911549341391525  0.9760585745907863
  0.3118398279719768  0.4834843024807803  0.8432581368748664
  0.3672333699946260  0.5927955836117574  0.9819551654257965
  0.9916064714162858  0.0828663611358004  0.0774904451533270
  0.8069827752602359  0.8799265312847537  0.0991023006711924
  0.2477111641762643  0.7518130840624551  0.0286876328981524
  0.8742439249665697  0.4960937830467836  0.0212186639237878
  0.9621436541090200  0.6373563448429304  0.9251211139555920
  0.4068346925505311  0.4217210450626676  0.0194536642923937
  0.2457754910844476  0.7234124353194641  0.9346839838166523
  0.7542226322479036  0.6084739000057960  0.6907954466713181
  0.7530424868840062  0.6696091461315115  0.0062364726141735
  0.2866948185415241  0.9083366783605428  0.0478337575434792
  0.6812208854266208  0.8107453625660921  0.8103018855677363
  0.0810003895427853  0.0429278784167910  0.8676071133349313
  0.4692326671734436  0.2396562838788745  0.9617815806565344
  0.9300425266438981  0.0750014626222194  0.9112065606557611
  0.8567188778704913  0.7946661629116021  0.0436661396666545
  0.4885528975932137  0.2808142312672837  0.9427403670192792
  0.0966180515259458  0.1180193709390752  0.0978667679118042
  0.0899899207038066  0.8289816053349638  0.0124932830345604
  0.2907274818584547  0.8279245467187540  0.9412210585928893
  0.2277858107590258  0.8221395402765940  0.0381662433497496
  0.7445482132119351  0.3046421110901063  0.9293432686014824
  0.1909409622410642  0.0711768051041488  0.9613344796516619
  0.8225047162405374  0.0155559917536441  0.6258598405929036
  0.1058791219566109  0.9694319635379988  0.8681714206410974
  0.4010398935669051  0.1357993412961153  0.1080990954963407
  0.9087838923657320  0.0109658186100210  0.0425685197074194
  0.4916092198460512  0.9549097578207453  0.0934042499382314
  0.1298599410481488  0.4890405823596748  0.7341854085308031
  0.5654263489149066  0.8997922717022209  0.0188304343141211
  0.4433018297658277  0.8446506711612839  0.0798468437114663
  0.9138727733635263  0.7725480275429543  0.9353960189937705
  0.0391409651380576  0.9161614072280635  0.8696659105629274
  0.2476740211903549  0.2617838887460924  0.0203455844426955
  0.3424150410321037  0.7330159806581776  0.0627210547516435
  0.7292199665543244  0.1205209470661250  0.1100711488500447
  0.4902341689603347  0.8027326344124639  0.8659240220180605
  0.3343322596729289  0.1460419879390606  0.9445373026793691
  0.7148390615247885  0.0809268602649417  0.7469906463985614
  0.8161952037712119  0.3447401787501752  0.8992584615011158
  0.4156549545683276  0.9519336187118537  0.1003027575686540
  0.3401625366255486  0.8456532597623325  0.9601588749656569
  0.8377390272131489  0.3692580703705880  0.9505122405766840
  0.8321824662238522  0.8506553425478076  0.9548645564201708
  0.2607215703115088  0.6652622189471528  0.0966322868324145
  0.0269666805188456  0.8137334208275607  0.0563834668411843
  0.4496884568516054  0.0975561511778027  0.9150186515291159
  0.3082536023143413  0.5799799966583928  0.8903985550164348
  0.8156645489614148  0.1694680284938615  0.8965930389067117
  0.5596322562288574  0.9479837879246181  0.8082180225448274
  0.4363318793483806  0.0910343620310044  0.8821817007705853
  0.2829393483922968  0.2822690998409743  0.9291725868968103
  0.6898619014460796  0.5283387945929897  0.0436570786708815
  0.1713376360267189  0.8943630170152487  0.9734216588034822
  0.9452189305128013  0.2142837135360309  0.9026025388162264
  0.1455264671568200  0.0044790719514915  0.1174003352177037
  0.1437497058924182  0.0803673943313842  0.1180288980175948
  0.3014731878287549  0.3451397988854242  0.5219105981616862
  0.1393703455499780  0.0055960902059575  0.0028766445068170
  0.0598476995190688  0.0900188935945405  0.8077544550899003
  0.2124133292787362  0.1568178361386659  0.1157639413119497
  0.4039845551153330  0.1953725644913198  0.0644247612601007
  0.1623782199602370  0.7736162623600942  0.9792522689170624
  0.5689341543735118  0.7739903712731658  0.9124561863853092
  0.6069404052339630  0.0047253253038790  0.0460108884050967
  0.1442679597850767  0.7141138342371136  0.8073548895301195
  0.9378210062131311  0.8809843151697369  0.0185183078168582
  0.4210354919980864  0.9942093303862649  0.0262647845045843
  0.9911411058161997  0.1043860527839236  0.8478825887645658
  0.4112408774689635  0.3623117237824494  0.0111907634926958
  0.9368036722621436  0.1344859589342343  0.0106858136299562
  0.2427477446619884  0.3889757095365511  0.9970720258529252
  0.3706681226878886  0.0046543858179983  0.1615413105219500
  0.2070327277657860  0.1627507172462239  0.9961907136767089
  0.4664962430039659  0.3639719841026241  0.7467577578924168
  0.1213083814781006  0.5589958479976227  0.8808784705489926
  0.5970709396246765  0.1400169124362201  0.9153074616850156
  0.4465582320336470  0.7658527759680706  0.8538164215349145
  0.6580741980359854  0.8051860309700734  0.0582848265612308
  0.2223838361295552  0.3867948535422643  0.0731460096995783
  0.9334770989863220  0.9304383080250196  0.8494919052445674
  0.0315480586380582  0.3322383250961289  0.9069044809428825
  0.9091707226213573  0.2448405110621570  0.7557108319253435
  0.1135819324991544  0.2819351281915056  0.0201578657657723
  0.0634962748116924  0.5346809836185268  0.0432542697998841
  0.0024656070240397  0.5484520463327295  0.0003585350202104
  0.5187071885589223  0.3924853023906595  0.0193578015837508
  0.2407600825649189  0.2246820019336830  0.8815514840556362
  0.2183295442937966  0.4512078072081531  0.8509273673633311
  0.4422577008205105  0.1279615058736392  0.8129631691289391
  0.5572884834656904  0.4186900589203292  0.8149504793303641
  0.7223699715810639  0.9589477092004148  0.1322912352129253
  0.3666219058593347  0.4813264031485083  0.9095083237025501
  0.9527535816055376  0.3026336814227600  0.0054925754540216
  0.7725581260708362  0.3079588534209183  0.7761345801163806
  0.0734843048059568  0.6926718350402522  0.7355269205182330
  0.4535950366957950  0.4859221418575693  0.0306009423451427
  0.1057948825636086  0.5137817513730442  0.0587070956718728
  0.1749700302430705  0.8065424812091568  0.8704762707005405
  0.3355840129613547  0.1120301883445144  0.0994895972876780
  0.2794771108501609  0.0097541642609051  0.9809204433576908
  0.6997995469143254  0.4719849038075121  0.0771934020314604
  0.1092691618934306  0.0431784505144722  0.9174935265113351
  0.1324662193314842  0.1702767288840124  0.8425551565032537
  0.7071090045507900  0.5746753282008671  0.0247658484078688
  0.4780662814728748  0.4800183007383413  0.7645910045512981
  0.5318371343311941  0.7102370199167817  0.9286580522290834
  0.8064450895095426  0.9554168740027266  0.0194506942531445
  0.0272950231840842  0.2418560791438496  0.8599865149741548
  0.6025913016849263  0.3923742042321142  0.9230808882171440
  0.1677327683808868  0.7515853278036709  0.8864550966997903
  0.3643522211722288  0.1808741482328449  0.9934242949287919
  0.3672084039610716  0.4894734123866702  0.1059820130182155
  0.1985942320660616  0.5454034792949982  0.8276556279391384
  0.3772600810254367  0.3794287557749925  0.1149506300539414
  0.4040747999565007  0.0239008966543731  0.7041908459858403
  0.0621532632956841  0.3587388765461575  0.7868710496123303
  0.9042168666089712  0.2496374174871834  0.9671460530646872
  0.3637310237614579  0.5334586031224009  0.8879132878849845
  0.5929438710026934  0.4732879927980921  0.0404742525378251
  0.8513638161400077  0.2751184800868379  0.9219351264239196
  0.0557485759423406  0.4374557554116049  0.8836035857811719
  0.6954082275477603  0.3905770470022552  0.8461787717931701
  0.1067790106569036  0.1752022996076397  0.9580911695999819
  0.8755594750983344  0.5889121408646031  0.0514884614517165
  0.9197216261455122  0.2693200973497500  0.0297134698692889
  0.6562890607481759  0.5415654918763144  0.0056498237103882
  0.3001334330081644  0.3996491642924340  0.9775029425291509
  0.2059967984255101  0.9368736572404780  0.8306452723713210
  0.5254887986906530  0.6207557585465141  0.1121474348807122
  0.7653495970394838  0.2646335980651556  0.0463560582919619
  0.5846520970390232  0.8435627824238294  0.0138190446297704
  0.7995598958666433  0.2906992715809838  0.9112667064416068
  0.9131787383459939  0.6303990922602407  0.0382134213715177
  0.7809134987699908  0.2434700689250895  0.9794740613254618
  0.2903751385909313  0.3845106481404643  0.1137109860838793
  0.1015438404756659  0.6620355394937520  0.1332633300947225
  0.2286557195639154  0.4633538043642562  0.0407932084817270
  0.4243759350456778  0.6238420292946164  0.8597536924700849
  0.0074674862521099  0.2984034364914042  0.9898331091244994
  0.5240713495147498  0.6382004235114985  0.9324525782666024
  0.5673241786147308  0.6456638532085545  0.0193291372679625
  0.0193844965276999  0.2937534859142088  0.8476161248940492
  0.7961120354740804  0.7587021382282751  0.9905026897625905
  0.7749465790756079  0.1690929742865190  0.1208680211512478
  0.0687801672420018  0.9423993227522148  0.9846923803578495
  0.9164333674576559  0.6294225938776458  0.1521660499512832
  0.7226713672066224  0.4212210950055225  0.0633144234553590
  0.1037788030671533  0.6477553563759415  0.0540010649189831
  0.1605983001560918  0.5828957872703536  0.0120510987541311
  0.1768644665522895  0.9536501337043432  0.9890763210138758
  0.9636521767211452  0.7687920205903813  0.9545748516242518
  0.3290480728200403  0.4280024689879750  0.8698671458781672
  0.6289547995833003  0.6993256177988662  0.9581087959830374
  0.6039504091584414  0.3910836231592451  0.8744937013739259
  0.9540091962324156  0.8945156960181181  0.0536650896933441
  0.5947937373687012  0.7368849515858850  0.8654836683816517
  0.9987923461118695  0.0663152494120400  0.6449234798058128
  0.2264042381311498  0.9110657854898375  0.9357491288699549
  0.6888234532139244  0.9671098707184400  0.0296089615982994
  0.9169414521855230  0.2508713616137303  0.8552774145013735
  0.3643438613012417  0.5955957458377336  0.8718835993896638
  0.9945418820108703  0.6987165419434320  0.0405995658739601
  0.0181997984631241  0.6641110977935022  0.1009909700580169
  0.2296942324503964  0.4669415729440722  0.1160412059544935
  0.6192013942561707  0.8603670075597837  0.0447908353588261
  0.4732034546812694  0.8159315632388183  0.9264974237153889
  0.6776479305145053  0.3703941318989585  0.9915431831481732
  0.9787553258491560  0.9778728710238781  0.8306126846720001
  0.8876955909875038  0.9505234865807364  0.9752560737911804
  0.6343586386690283  0.0891534410952772  0.8596003051885379
  0.1150502574068467  0.8093060380391947  0.0965908993149130
  0.7045787083485749  0.6527409828843069  0.0660621256948153
  0.7954747501640643  0.5491400138883890  0.9509596886044963
  0.1735242724096075  0.8619438054403027  0.8552441570544708
  0.6698600010424692  0.7566432194145506  0.8314945973946561
  0.0645767800438062  0.4188546062484743  0.0407575023405441
  0.4151320419818956  0.9676728022073068  0.0577915153821881
  0.3027063433638641  0.5406387665041886  0.9589892233809362
  0.7517259581007273  0.7652888369939972  0.8951029277156699
  0.6755799810882394  0.4741298552698209  0.9141925831208366
  0.7574661123216493  0.6885468693838646  0.0806522447258741
  0.5605770316129614  0.7180645480023883  0.8935751015650466
  0.6011839319125830  0.0172255776175345  0.1182945916985277
  0.8946425726928312  0.7125838782902788  0.9365469971363207
  0.3642364967022453  0.6351973815378941  0.9290939170572879
  0.5078821321293028  0.5326944735467777  0.0199397976068750
  0.8694109327018845  0.7570156296470678  0.9876252578050130
  0.3806737401536925  0.9263414095864198  0.0749892689905442
  0.4536972437167661  0.8336762524350358  0.9987307029344508
  0.4415538625485377  0.1655150116002681  0.0440971730503399
  0.2310428823676356  0.9755796452296556  0.9666274205934947
  0.7085583705808709  0.5719978231699260  0.1093168529073313
  0.5883688221722352  0.6994346396947146  0.0356691848032759
  0.6601953616450951  0.2693939590377446  0.9177681000843507
  0.7957555333187617  0.0426648639121220  0.0595871745692850
  0.4284525872038046  0.7722688138875067  0.9402745469023486
  0.7443161929989726  0.7439603005849614  0.9250685261015609
  0.8010224372001101  0.7328163737379234  0.0732052949850732
  0.5563979998643442  0.2674738593657869  0.0703291137398536
  0.7515039770831176  0.8894586720337713  0.8009248681690980
  0.2667247870047492  0.2821964530337522  0.8660273850742228
  0.0642504285859931  0.7835782669309604  0.0829854810050076
  0.5168494638263309  0.5752900678508807  0.7620601007537953
  0.0935651540433469  0.0300445017734695  0.9474125976533998
  0.3479054997500057  0.8835818950350435  0.0267686608411090
  0.5017768097994082  0.6845779582159439  0.8395682561290311
  0.2177994998733325  0.8475798183492105  0.8840167172193513
  0.9190355847069220  0.0506125935754103  0.9397474976888743
  0.9287900499849707  0.0076690532145455  0.1166371547079373
  0.7067622689073279  0.0256598539060917  0.0194320985901671
  0.1029928870133029  0.1195917852826912  0.0208756229674796
  0.0702919864851697  0.1598700733009978  0.0385888664226751
  0.8523919688550962  0.1927680659877794  0.9820708611740493
  0.3772704176964927  0.7564969576343660  0.0853735355255435
  0.0362339804254043  0.7684416900284807  0.9682048408415932
  0.2163095331529339  0.0976307314884636  0.9991984747207610
  0.5162994854547081  0.0237404202979755  0.0054786705403685
  0.2959429988889228  0.7996400471913392  0.8508012195016353
  0.7350115420031620  0.2102973768504323  0.0388469661885931
  0.3014156680491609  0.2158370700323990  0.8847121344930550
  0.7721599585572979  0.9167804283205114  0.0782304554470886
  0.8394636002972498  0.9263386147485099  0.1132687947146949
  0.4451933752797488  0.9707565752365389  0.8923314870363446
  0.2842549890859056  0.0098713321512407  0.0371819723877877
  0.3327113209817831  0.8138117610514953  0.0136613801703216
  0.9238219412061117  0.7735238500738933  0.0744678439340437
  0.9996022686170074  0.8764488503479447  0.0307861271566164
  0.3861243899190597  0.8785751101122192  0.0018155588750254
  0.5434006594631543  0.0975619026663925  0.9648956135771845
  0.7017579002772140  0.3378331166850395  0.9117316420682150
  0.6658953538260584  0.1981613370102123  0.9839616576196163
  0.6320514624852984  0.9911738457413484  0.0179024803774105
  0.3939782409605850  0.1683562263846527  0.8242897567567611
  0.9792697115589279  0.3747575032594598  0.8979926321709155
  0.9716011217930830  0.9292787612125689  0.9010298264411708
  0.9977196099705355  0.0105477639471308  0.0752575530663067
  0.6427564704163501  0.5577876300103516  0.9589748004181456
  0.8050854960264173  0.0770525162260492  0.9312628356447952
  0.6902559418828377  0.1614238347094506  0.1213266679659866
  0.0121508031135382  0.3904410721509896  0.9622962910995837
  0.1291080785575064  0.9971826936245374  0.8983029546744891
  0.8930327194377383  0.2962670640878118  0.7685249862351151
  0.5404936393339839  0.0421672027630478  0.8901694968209047
  0.1788865568364442  0.7704096479843268  0.9192911713333858
  0.5056332848375200  0.4478459640350577  0.8023125728256173
  0.7104646860593874  0.4241657534733205  0.1346162013262973
  0.6513890360481610  0.3552770215334143  0.0980978994655644
  0.8425014749030222  0.1619773814969427  0.0415553547343293
  0.0880715459623708  0.8236010524210324  0.7895579644042839
  0.5968995370550673  0.5243529435082772  0.8677825712397920
  0.2405931179403483  0.1987117441332826  0.0147671102723277
  0.9549849140773690  0.2837023067886436  0.9628628496329921
  0.6862511196691031  0.6079538981018666  0.9651883256283654
  0.5260199765773566  0.0033299432247631  0.0822174491590773
  0.3222158537032029  0.1147660796624168  0.1352060614190505
  0.2531195448603163  0.1385243554019110  0.0263650070424805
  0.4301328998011911  0.0443209546861191  0.9203291920026894
  0.3028649075528829  0.1676784856032437  0.0366490102497814
  0.4215183483356686  0.8295172829141308  0.7580236003733267
  0.0611203128249228  0.4858419336160057  0.9416714108140671
  0.3404219313222793  0.0025971011076835  0.9799906911093222
  0.7936075675265346  0.5778583843232080  0.9103419723200059
  0.4476265398069454  0.1762163309717829  0.9998551402433996
  0.8922480464866084  0.1921117779923110  0.0140463334805210
  0.9862535099867437  0.4617622907798520  0.0801431154718941
  0.1921657116886814  0.0299038580232087  0.8896352317162881
  0.3986213336419693  0.2721233425291988  0.9871728565227073
  0.0714562734978048  0.2362453159099543  0.0862277329120347
  0.2416873236096617  0.0100464906476237  0.9026473473417196
  0.2901222470928713  0.2266632993392169  0.0066896772462719
  0.5510971673139563  0.2587542089653475  0.7558382774445361
  0.5636592930063865  0.3582154713979850  0.0071814430001505
  0.8642754154724082  0.1164495033283535  0.0155881431703785
  0.6390484301296271  0.4473510508381410  0.0906812056699634
  0.6287282221681189  0.2655527115227191  0.9434528771809131
  0.7627624833841593  0.4598460275359639  0.0814466799182711
  0.9255812571205300  0.3113927440258316  0.1228853968993449
  0.7566836792069033  0.3827675409077625  0.1451295895707444
  0.2113849398193507  0.2463543380062229  0.8587217861504097
  0.3007946961781131  0.4721681396886639  0.1137387732158978
  0.6088177194653877  0.9429601098048814  0.9765293991651639
  0.0527032115350407  0.6310213027916483  0.9620388643010076
  0.3516806661871985  0.1628490660041900  0.1189619363768784
  0.7624096310754609  0.7039221274673317  0.9034208044550036
  0.6526691610341118  0.7250553866329166  0.0206374638899945
  0.0339265603717721  0.7521865253175749  0.9039491652504624
  0.3190336129513865  0.3306477721010256  0.8589777200021846
  0.7173354562832910  0.3367822472707491  0.1340930663976956
  0.8064040126914985  0.3794972581777518  0.8597864851636049
  0.1882510167493061  0.4405082148653246  0.9566213712399626
  0.2026748281891274  0.3034851718387059  0.8683197411285462
  0.6045669560121378  0.4659284725351989  0.0106478461036427
  0.2006958948366278  0.5490668843743542  0.8955594216253135
  0.4240711548150436  0.5240757744335320  0.9820202233878337
  0.1047604203994003  0.3366777917010569  0.9710901409724569
  0.5569363391179811  0.3679157007397585  0.0850162005815773
  0.4833628219154933  0.4801672676665771  0.0069053210083746
  0.5341711616959127  0.6258033997775668  0.7861932800002819
  0.7680011258266113  0.2746473027927385  0.0126814463029961
  0.8163764393168441  0.3036178279353197  0.0308344332092094
  0.5894553141166550  0.3454146222712121  0.6190081723136908
  0.7320494469424873  0.9509865873657445  0.9715297461712274
  0.6248001923925063  0.2397468337771063  0.8113387646323825
  0.1675406158279717  0.4801770288501981  0.0405048317371143
  0.9043871765222261  0.5489149239189234  0.9038252803268531
  0.1517484465218287  0.1117556290973951  0.9170174602734779
  0.6012904779920726  0.6201917552422875  0.0452792469172029
  0.5159970354557898  0.9585041969310509  0.9811225305808293
  0.0977936912201297  0.5165124639946721  0.9659130585113036
  0.0771382019181251  0.3992916251669520  0.9739102010469151
  0.5268371375310003  0.4645755341728110  0.1185295144947194
  0.5810368995003223  0.5393092148864982  0.0082850606702430
  0.6194913499735162  0.3915767352772713  0.0465654348615957
  0.8593107503593466  0.2646428039497993  0.8040787115766375
  0.5018973052988359  0.5105330767023610  0.8283703218786891
  0.0305737660524486  0.8792300442283453  0.1003504672303555
  0.2194901534687639  0.1448629117628091  0.9220453023837307
  0.3460618698309496  0.6300824532817890  0.0072959585836130
  0.1424956646191052  0.7574262339517043  0.1165545757370371
  0.0850808903178406  0.0139949666896963  0.9832275258219203
  0.5250226145014115  0.6385295775543541  0.0763210600771688
  0.4213651647107406  0.5174575846597326  0.7930935431862562
  0.8009885430435724  0.6465582961369550  0.0959116524562554
  0.9800934395877887  0.6133576377422408  0.9968697917505142
  0.5000550224090031  0.5837164674637693  0.0885109383188995
  0.8094135683672820  0.6594504791650151  0.0199233657118765
  0.1501764956281180  0.5535098152625643  0.0788413959030752
  0.8482241027785948  0.7764759932953905  0.0804204293249957
  0.8105537920076622  0.5820987773224239  0.0920412830113323
  0.1420041303592229  0.0162281293034349  0.9713688103957443
  0.0931965186471169  0.9722787154161509  0.0574321560626818
  0.8357637449743905  0.2588331256421541  0.9702286105796106
  0.2647129960977476  0.8077195128847752  0.0637899247559474
  0.0702864561392794  0.6034662017710679  0.7652462899129564
  0.7877986328887261  0.4888766527156906  0.0243771097320904
  0.7087860526376401  0.6407389866439233  0.0260434375278885
  0.4466498459561886  0.7858470858698625  0.9058489246527618
  0.9552919343745542  0.5588216211873110  0.0261401643801564
  0.9400270184856583  0.8114049564259139  0.9120763226162616
  0.2662892964519831  0.6748557616152911  0.8616326714531970
  0.9078862847551771  0.8431783177732755  0.1191226755892788
  0.8447028551010759  0.7230466202055297  0.9576757368721929
  0.9136271046126687  0.9419390413027681  0.1146797797777722
  0.3000992769976596  0.7677145791889047  0.0829564761348103
  0.2054246274469661  0.3698154378005175  0.8674031755640059
  0.2161528678254065  0.7388818731992556  0.0008148372293405
  0.2905051904186192  0.0662553163421888  0.1165598396503895
  0.3987992340976456  0.7942145242472859  0.8758466948847583
  0.5872087220822522  0.1601450005303766  0.0524505260283883
  0.8608070024383302  0.6400733110346940  0.0295175592218765
  0.6077434969536636  0.4603981085779252  0.8308353747006701
  0.1489448538782428  0.1011601538657412  0.0007009436519745
  0.7752448866972546  0.7441020468633059  0.9592429142596857
  0.4002336367761287  0.7314093818035813  0.8625063082836372
  0.0272304105363772  0.8101791997440705  0.0976221119249084
  0.2202075190839571  0.5534864004354095  0.0755869976974358
  0.2091591812088798  0.7783997691858510  0.0787521170509636
  0.9620476522801322  0.0083615955069727  0.7706917816651530
  0.2487669379485080  0.8900021331900217  0.0226297948548937
  0.6377665249460366  0.6692749084711698  0.0918342257412741