super cell:13X13X26                     
  0.965520934281071     
    46.0918769143074201    0.0000000000000000    0.0000000000000000
     0.0000000000000000   46.0918769143074201    0.0000000000000000
     0.0000000000000000    0.0000000000000000   92.1837538286148401
    8788
Direct
  0.9668286028433286  0.1178853307807799  0.9661696647337124
  0.1799162985937812  0.0106557922451387  0.0837559570046480
  0.1881441339586090  0.9561623011219424  0.0311397310439716
  0.3137739914543616  0.9836187142895625  0.0483810622495469
  0.3263805236211326  0.8781287268866294  0.9796917783506629
  0.3902599584941484  0.9783186503351047  0.0015598499860303
  0.4306453799995467  0.0216169288069565  0.0017203891524957
  0.6093666495793215  0.0239119560802408  0.0629197009869458
  0.6087628946318517  0.8691076060460148  0.9766284683633515
  0.5887377320920564  0.0011372868346058  0.0399311614195028
  0.7683487630541350  0.9154725194168023  0.0542333761813367
  0.9079405144082315  0.0081978879552977  0.9536103571925096
  0.8790740404932862  0.9993101131792059  0.0389623932820413
  0.0619959827871668  0.1253649647231896  0.0067260299268384
  0.0843497896973489  0.0542945677699080  0.9414093216895196
  0.1712489325799069  0.0196769957528673  0.0515735629823340
  0.2012317731861870  0.0533072286854903  0.9938998763738027
  0.2679156946021806  0.1241549539408027  0.0091219774244493
  0.4912235731411982  0.0237624190691008  0.9911328399440933
  0.4834703481137339  0.0415096161582227  0.0415356123084436
  0.4184966001619657  0.0992316634366119  0.0017148126900324
  0.4002477973699285  0.1696278364314594  0.9311831538489059
  0.7079535742466589  0.1962340263091278  0.0418289580838263
  0.6793583277700179  0.0920270126388871  0.0201685584536762
  0.9309062368187710  0.0834450143164247  0.9978375109949411
  0.8955701080699257  0.1837100533411657  0.9573067335439589
  0.9102609983158914  0.1632934468454437  0.8869561247272344
  0.1136602382004170  0.2024247941673920  0.9499931562547488
  0.0532018348147929  0.0725908325579425  0.9931793063005330
  0.2485948906236359  0.2940970790020216  0.0192678118450615
  0.3459266958451437  0.2777061788729611  0.0307781954310542
  0.5408072805263799  0.2088312496713272  0.0724335343895035
  0.4590090141725227  0.1347446714593588  0.9523104038444927
  0.5632292503583756  0.1730837506908784  0.9998944284888722
  0.5979771780853937  0.1527367793557204  0.9816947451781814
  0.8012857629870993  0.1895970262577293  0.9893014660094224
  0.7759723852601326  0.0162861399879617  0.9243592539800147
  0.9125388030921258  0.1207426209269542  0.9759261163586217
  0.9876927911378814  0.9658825067057251  0.0180701068602289
  0.0715828287355151  0.2785001990761984  0.0084500000318215
  0.9938980691446417  0.1529632058710746  0.0238630797419859
  0.2318174051008768  0.3067260511367422  0.9887007361500935
  0.1888882099818758  0.1508893035473307  0.0535706696706697
  0.1693678009609982  0.2012693126562795  0.0072300917698485
  0.3423261100858426  0.2125006527572282  0.0093167048861247
  0.4333175537289904  0.1899006297632866  0.9959026479807775
  0.5228698766203905  0.0725649342407380  0.9973758329254423
  0.7077343742370843  0.3221123417733978  0.9757435354787845
  0.7980845943061965  0.2485021381189796  0.9913238259669654
  0.7203699752369914  0.2402485433989838  0.9745466905392206
  0.7505655465021164  0.1576808593678081  0.9865762233100952
  0.9901466883457317  0.1966378776676834  0.9649544242839596
  0.9780630291561963  0.4257562660928613  0.9842621773627727
  0.0886825251592782  0.2589531011867408  0.9831278900252443
  0.2124239263663767  0.3709060074941490  0.0961603582314225
  0.1035120581333544  0.4535511829346603  0.0384472896780466
  0.2226811312012060  0.1974210697511509  0.9735141723065368
  0.4061460241567971  0.3141629578927052  0.0333138531568196
  0.4711093207295534  0.2181360288595613  0.0199994211848988
  0.4147694050151927  0.1275304304365008  0.9731922496338115
  0.6245793697232074  0.2795735495249403  0.0237341531164077
  0.7417718749959334  0.3744661023011631  0.9871162449478206
  0.8059039318610672  0.3293389972745118  0.9898847615435002
  0.8764183226081599  0.3676156550037319  0.9574553409948763
  0.9960715359897989  0.3069304740939387  0.9849673524163762
  0.8498041031208174  0.3344536005839274  0.0363979524317699
  0.0093673639394609  0.1976062805122609  0.9336342405163904
  0.1003632252289890  0.4182563105976342  0.0134546080563851
  0.2199394686769764  0.3499481969804279  0.0339527617156179
  0.2923826164591645  0.3700701627396938  0.0264032897183242
  0.3286783289270829  0.3470509145259868  0.9895562209824860
  0.4070052314817048  0.3744454056157807  0.0398714832004288
  0.6701039093999341  0.3254176683702070  0.9316380427868793
  0.6213209172285872  0.4422925473726806  0.0117644593605419
  0.7095797971388222  0.4739343976650545  0.0032368501228390
  0.7541697882251270  0.4333475261632245  0.9918201537762101
  0.7318096961631468  0.3438608553131672  0.0338017131908686
  0.9270777689070258  0.4522418758850719  0.0039280637346835
  0.1179846610137858  0.3901661619684234  0.0426373150404231
  0.1010116967659727  0.4107714936474736  0.9731335139000379
  0.0730246789260960  0.4997563096236206  0.0257271679048614
  0.1802703152482437  0.4866478762230102  0.9199205946237115
  0.2052929862737400  0.4199773272682279  0.0121739075733700
  0.3726092727280204  0.4532547421314135  0.9739770497386715
  0.4851918573338665  0.6296449487008786  0.9444610786259915
  0.4538446817168094  0.5714567281412499  0.9489619635766715
  0.6301411825918066  0.5001439013040709  0.0233815674001292
  0.7354771518424315  0.4337553340669942  0.0667463828102584
  0.6957571463245600  0.4460506403211042  0.0349603110572829
  0.7701205664718387  0.4885729890261246  0.9707977523065310
  0.8620517582136529  0.4557530998694546  0.0131902980603229
  0.0294434155352690  0.6487877525591728  0.0829609288855835
  0.0011947756925963  0.5922205499536020  0.9731581095007229
  0.1522857778119899  0.5009822632298864  0.0322214165916677
  0.1615293934100208  0.5516290650385898  0.0698813173690382
  0.3013017013010781  0.5039671890640349  0.0214844271985939
  0.3845413772474089  0.5071208599383610  0.9748360285134723
  0.3988677553485758  0.6815051216463104  0.9491160790053428
  0.4299124916875172  0.6167328116449298  0.9642136978642100
  0.6149542997693658  0.5572498682411222  0.0115641992369788
  0.7396361787966939  0.5477253382715190  0.9945944925683321
  0.7332367940228224  0.5876185736458268  0.0190232503127206
  0.8378168863728490  0.5366241676159831  0.0474215054612728
  0.0074038534384968  0.3664366866439366  0.0423317857174226
  0.1005219531993191  0.5916937296479645  0.9347520067602275
  0.1647290535246384  0.7527897331952218  0.0441325054699533
  0.0779210414811118  0.5898663211201480  0.9827570804343750
  0.2143745560943913  0.5422856001934448  0.0171828544536723
  0.3535951577699592  0.6565377697336459  0.0209158619474579
  0.4068136865722352  0.6306933764166303  0.0365957947467166
  0.4744327287235919  0.6016040801213975  0.9903182479462060
  0.4684537260043982  0.5608038390524825  0.0428399311272329
  0.5311654161032990  0.5662798235576005  0.0514799406520936
  0.7250206748208754  0.6792960953046361  0.9818533573629793
  0.8201476294614878  0.6295508235100584  0.0074302697317066
  0.8531281798556307  0.6096724963548183  0.9825122505049606
  0.9473831196140381  0.6989420883500443  0.9487368188072409
  0.1705823368325170  0.6904579052588176  0.0002981131077746
  0.1338231552627249  0.6452458322241768  0.0367991545593966
  0.1804301629064966  0.6389721361099774  0.0535411064036779
  0.3390609360004149  0.5331282039330034  0.0024318239230396
  0.2302927055338344  0.6725623079993426  0.0010410761230233
  0.3637455515830652  0.6322055557298043  0.9624271791065553
  0.5212966110707953  0.7322911727035901  0.9602669069886787
  0.4352888199505855  0.6145919921701264  0.0131222052119995
  0.5271146939242968  0.7070191680824891  0.9876226763731637
  0.7193561078464299  0.6958552695434292  0.0419651777895211
  0.6821995885599179  0.8213635702096056  0.0406857304007815
  0.8816234764436359  0.7064628541896880  0.0340845440692306
  0.8715928589802218  0.7673620329690323  0.9840401388661988
  0.9961305491584653  0.7022693146397501  0.0048807890004881
  0.1041524582263236  0.8044163137500675  0.9460699428588555
  0.1202556261428924  0.8882648259865391  0.9646885969630645
  0.3330240857890132  0.8037051582459682  0.9946452681894371
  0.3823145461863504  0.7250253135251796  0.0041713972204391
  0.4042920133610721  0.7129103813810502  0.9769354521138993
  0.5357661979769972  0.9892460649182553  0.9764924839703752
  0.4837300738285037  0.7249009253143086  0.0130937978094607
  0.5620760347894063  0.6072960571514798  0.0002618092649413
  0.5367001808662621  0.8246417474993493  0.0150892428103049
  0.6787909008669644  0.7300276562448147  0.9439672168347712
  0.8488902875871887  0.7695377328884945  0.9494607129200645
  0.7288922975852543  0.7765739923200812  0.0257792324895689
  0.0740929655981546  0.6442776397068286  0.9713695803157663
  0.9061897231596632  0.8213189759595068  0.9675938688373336
  0.0656450756543165  0.8010009898605546  0.9748120531579190
  0.2037769355667365  0.8430820375712216  0.9864292399533099
  0.2989542130826166  0.8486589997488352  0.0118281735925265
  0.2368076890539541  0.8290214175878390  0.0694370277372371
  0.4264273227725113  0.8119608672973584  0.0158431885546122
  0.4853229566771589  0.8443366454511789  0.0083837627782302
  0.5695437782158876  0.8444634501184964  0.0820071289736077
  0.5076226999504954  0.8981261704268135  0.0106193035413185
  0.7666526471989243  0.8437283425148223  0.9083366149460304
  0.8575600686625506  0.8476895954361510  0.9852426520214266
  0.9714524171326815  0.9264839310737756  0.9696213443554811
  0.0516825508186898  0.8367455076189003  0.9466852323593358
  0.0674710480489438  0.8674323894616549  0.0233821118704185
  0.1839347240885090  0.1235326938863395  0.9668560247958169
  0.2261361697228779  0.9896719038295601  0.9929014675840264
  0.4457349613786192  0.8382292403884293  0.9691066302672482
  0.3370921551615922  0.9580062940160303  0.9234108690054015
  0.5146734248415896  0.9874880533606145  0.0126366957998627
  0.5056061735421764  0.7675598379673048  0.0342289509834472
  0.6598768921768894  0.9144495979190452  0.9616060804087567
  0.8114816514258010  0.0144837544313532  0.9923577357109750
  0.7937787049982674  0.9559364300156616  0.0245365777365194
  0.8182284690763311  0.0168292241398262  0.0530484230073398
  0.9169627546308021  0.9554018509702615  0.9442600507571370
  0.0328811692913149  0.8974103882474935  0.9963704918937140
  0.0201491562573182  0.0864155740624781  0.9216333036756907
  0.0407168287360520  0.8670679900971336  0.0564573349076127
  0.2132573219904259  0.1175787010616887  0.9931389117582796
  0.3768952616219678  0.9959397610461309  0.0319156040080202
  0.5445746459473995  0.9528518985681274  0.0451108213582998
  0.3883899721555721  0.0576616913945927  0.9994000035868282
  0.6589330468843571  0.0635035378232374  0.0509992349116786
  0.5905912331695333  0.9730439450449211  0.0767235900940406
  0.6456941128050957  0.0327572465131141  0.0135678566779092
  0.8180868121176061  0.1305322755339589  0.9885732000671155
  0.9965117385600166  0.9276346255917147  0.0514828699672520
  0.9898564424391978  0.9042931249439334  0.0209461581097514
  0.9521422388920726  0.1703782307553254  0.9418719289594719
  0.0155953358989152  0.0092550960155364  0.9731994146316865
  0.3019134590680110  0.0712878986467729  0.0035328228815814
  0.3222792534205894  0.0515335697125892  0.0519746821486322
  0.3807311149123578  0.1456109193788322  0.0114731958450776
  0.4741941482632939  0.1781870886720114  0.0439684229261204
  0.5395296074386167  0.0313806287877867  0.0232396601847782
  0.6025706299085627  0.1832235326669220  0.0223742650253911
  0.6440942466181170  0.0819344669913704  0.9937022592225020
  0.6986764295151815  0.1162703415533031  0.0864812525719429
  0.8685560523936431  0.0934108584365561  0.9788948974547083
  0.9240047441507500  0.0494964677508491  0.0460077477308829
  0.9836964431670623  0.1671514286522466  0.9926697986341892
  0.9697237973772985  0.2047578014482525  0.0482225466736992
  0.1577923008441928  0.0932449762585890  0.0119605418020896
  0.0483301638248577  0.0046410920464979  0.0037486729709997
  0.2742519454629502  0.0224225250097305  0.0359611594434952
  0.2436198156160856  0.1732646073211299  0.9954621550058249
  0.3731886987603161  0.1761008060616192  0.9869164340579744
  0.5130152416426981  0.1442906145599423  0.0137930846822272
  0.5863759455615636  0.2412644351282864  0.0424509532788946
  0.6797178792938041  0.1827067463262182  0.0177381993131078
  0.7678508431253448  0.1263533965829069  0.0094440695341973
  0.7502017716422884  0.2078342656043475  0.0219649197906691
  0.8029454617529979  0.1749248720302745  0.9610904912871590
  0.0102904483988908  0.2058966967144187  0.0099068577662180
  0.1471002944385944  0.3176866054896266  0.0496733126304463
  0.1734639795747910  0.2121716744970215  0.0548647659661938
  0.1408527342419248  0.1921558444328824  0.9728457652610700
  0.1632911947485027  0.1397086673350074  0.0262729756219358
  0.3255230353601490  0.3587331339604205  0.0492684347422738
  0.4562719295892066  0.2782510979439508  0.0216520546982366
  0.4379661915908741  0.2394064182090929  0.0494079215322500
  0.5922693523036031  0.2542750446618385  0.9585906393875518
  0.5941939413463473  0.3342532391042141  0.0107790259961007
  0.7882677272445875  0.2487677499170715  0.0379965450303956
  0.7659558363117682  0.3247288916107181  0.0108726047376280
  0.8983815541429792  0.2513333166687630  0.9655722046901758
  0.9718914369242313  0.3660003806862804  0.0149308086516626
  0.0589546633606446  0.4826949413133903  0.9694895397113825
  0.1339354967907767  0.2171306275776033  0.0350441643404480
  0.3078663990633785  0.3779147276154617  0.1017069147384291
  0.1515847450913412  0.3472652791208830  0.0245054955137718
  0.2957929369396766  0.3117377970620865  0.0039889224666680
  0.4854798815596837  0.4370763972912215  0.0627200162510633
  0.4621227916105397  0.3262802740339978  0.0446422921287990
  0.5859939089468327  0.3641612463705499  0.0369041112379023
  0.6139911195248686  0.4061960629655275  0.0337328216396457
  0.7812672453620166  0.4379191568235967  0.0486478341866103
  0.8753783178135137  0.2650718386185886  0.0292936575796432
  0.8513111605922035  0.2806314979953086  0.9883884564806138
  0.9752744047722715  0.3173259404106901  0.0373056310354301
  0.9928586375434563  0.2682326820831662  0.0165069922825154
  0.1769081315033176  0.3929850396879786  0.0315932836400279
  0.2021861479040368  0.4625697900954222  0.0312639466678846
  0.2528404964161268  0.3586713470554557  0.0108801113058092
  0.4025398818564341  0.4090996246165801  0.0624202014387762
  0.5037269950721068  0.3755023252988181  0.0470568752513998
  0.4744137030137026  0.3476683900852393  0.0181869935100281
  0.5367460961514894  0.4249139560259962  0.9363800786815517
  0.6057971593720950  0.5359143096064045  0.0399575771010703
  0.6246164367429117  0.4793037426017435  0.0494694769912698
  0.7412816783020872  0.4757547351429139  0.0269377261645616
  0.8500517519303301  0.3916746805990456  0.0083854173527058
  0.8586032702352711  0.3568767241232322  0.9848327266218675
  0.0591482155931189  0.5614265019124645  0.0406257005541519
  0.9952348777540720  0.6653569046078616  0.9736931723359703
  0.1372495735889387  0.5527658254587777  0.0185623710713898
  0.1976283204948857  0.5065877982947882  0.0550406245666011
  0.2579862572984339  0.4872700302399977  0.0359086111492743
  0.3407257795609269  0.4766901978631992  0.0008652103738314
  0.4803851694595735  0.5039710932905521  0.9784431893911574
  0.5282846753610073  0.5385066610843765  0.9896923007625276
  0.6842219698182674  0.4770316620030144  0.0625973210581989
  0.7955268039620762  0.5752106828543759  0.0069330593192234
  0.7892426222782731  0.5962850555303589  0.9813337857097153
  0.8290812241093590  0.4082983095223440  0.0337551108167631
  0.0383630196441729  0.4182354379927418  0.9900349088209381
  0.0556648740309171  0.5716466808476994  0.0108387446764482
  0.1108803163230974  0.5323011210285813  0.0427056395857761
  0.1864414480700631  0.6045641881166475  0.0753060403606085
  0.2558598221002555  0.6320268891746679  0.0900085206389605
  0.1869975700899857  0.5363363579670093  0.9797804368861023
  0.3543948999963362  0.5653698217985621  0.0616367054364488
  0.5274656745973090  0.7081442811134195  0.0265783095021064
  0.4530802885799261  0.5058908003000724  0.0044240094164323
  0.6301949909954772  0.6096890174931957  0.0489571837693106
  0.8646231983612651  0.6728422630384472  0.0073507292496444
  0.8687285915861764  0.5649758149630628  0.0086655675361058
  0.9390972520753564  0.6315282115312542  0.0605370069372810
  0.0104110233515229  0.6314861914541083  0.0247122202715744
  0.9596773163501382  0.5811514009604366  0.0323900415355993
  0.2234408287574539  0.6065200391990757  0.0309042374645898
  0.2510845050672614  0.6110749604948467  0.9919072125470549
  0.3140325004942923  0.7075931395970230  0.0407543537005921
  0.2844318805128765  0.6262130537640900  0.0187367827233871
  0.4197444260467265  0.6761450981317267  0.0634240870149796
  0.5755679999380376  0.7798799339986289  0.0339180419340011
  0.6251636238644593  0.6221963367870131  0.9810256777282405
  0.6647215640479516  0.6836298926721440  0.0319796181607188
  0.6720315559933212  0.5893755504254869  0.9992283196707490
  0.8831814034012524  0.6175344469396151  0.0178870898311416
  0.0541526877294700  0.7148581982133777  0.0199142814918716
  0.9704620723642492  0.7378528935088724  0.0743839994686866
  0.1097148939322210  0.7105964638612150  0.0403438046737676
  0.0577388927305762  0.8063784302256067  0.0056686215723118
  0.1256634688619869  0.6321679297593903  0.9944105613780891
  0.2782148013766985  0.8440172321506125  0.0405683054119024
  0.2530890962873542  0.7459215668763406  0.0641978960121463
  0.4327621598248186  0.7680972163600259  0.9458587027722700
  0.4660573218746507  0.7190315938705325  0.9727000320644237
  0.4545323378414921  0.6636139515086583  0.9616963287046545
  0.6241242227164960  0.7735103290138667  0.0101082626418005
  0.7537918553618752  0.8241706594540332  0.0320078862711100
  0.7252965121326724  0.7089171136064820  0.0079183596999997
  0.8430490612212154  0.8142593450811333  0.0331919592213623
  0.9620123369125153  0.7712731541145317  0.0496264678004152
  0.0600919849419270  0.7373542127223160  0.9854713819449685
  0.0421064821232875  0.7680381237697915  0.9582320196448961
  0.1060220667330967  0.6958630832225552  0.9804364224492090
  0.2129996762941886  0.7830525114692932  0.0450645041350697
  0.3299759151195403  0.8577820600701287  0.9467162349011389
  0.4621750729273373  0.6606988829133229  0.0351665309942106
  0.4325554269781335  0.7517978576907822  0.0022815913288738
  0.5196831892599150  0.8469025333661691  0.0413145577119209
  0.5480447150172978  0.7679186453338787  0.0046207605011546
  0.6728654220475221  0.9672275454320882  0.9958230473807603
  0.8643570350798129  0.7607050330298151  0.0173852959828480
  0.8409684763842122  0.8167545878373730  0.9647858584894209
  0.9730207993150657  0.8072031902799850  0.0136230092903133
  0.0130838692991446  0.7735558998437568  0.0223837829547975
  0.1539522004237668  0.8164362407932799  0.0058629926905525
  0.1101261250124423  0.9856015901162252  0.9907268739485531
  0.1938098103010759  0.0519029214505409  0.0242721022882861
  0.4226791303572313  0.7775809699353502  0.0398955072110923
  0.4331250537866538  0.8714950794705842  0.0110200458162453
  0.4113400427223226  0.8616813612441518  0.0383342894772198
  0.5628565015880511  0.8767261691054671  0.9975903088729936
  0.4735754869627442  0.8123734199611690  0.0505943673024660
  0.7460592583198604  0.9133607539809390  0.0280180195385853
  0.8758375859846552  0.9155489954435794  0.9976519390723340
  0.8758170466099884  0.9285498109711199  0.9653482950079351
  0.9233189273116693  0.9582553159081542  0.9766856310546927
  0.0967963761009756  0.0125459785566093  0.0507863686946237
  0.2144275895250018  0.9144099480244918  0.9937513379961587
  0.2229442057225626  0.9960936062260970  0.0256880589376181
  0.2464896827300080  0.0565547605408483  0.0086162552672775
  0.4185750359764668  0.9350223328166436  0.9850843297863960
  0.3607678722430023  0.0612330054114452  0.0298734850882312
  0.4111846492593969  0.9306333853098465  0.0204261529134158
  0.5394756234086913  0.8998181266947043  0.0559485412463658
  0.7027773787991265  0.8625559686458573  0.0195280449669255
  0.6122874096632458  0.8369160076349473  0.0231667302141929
  0.7970341982539892  0.9550741957794955  0.9721797329435233
  0.0610771972190847  0.9727829068490621  0.0508256836156562
  0.8245533750892875  0.9578893006948732  0.9989192317270792
  0.9702905351114381  0.8829724226541771  0.9928638041286177
  0.1376877443808837  0.0433799699104327  0.1016896005720511
  0.2275489357997174  0.0189361167718118  0.0563359300018931
  0.2365406467622506  0.9208357461369872  0.0200735177573748
  0.3433761461609279  0.8830993013388166  0.0333873728353140
  0.3726170269230451  0.1105890386768777  0.0434695541090733
  0.5335289916482395  0.9350626618566196  0.0773089612011120
  0.5651779665360124  0.0429726616517740  0.0788333894767561
  0.5606004136978839  0.8911743806380628  0.0307028583923739
  0.7553882682835820  0.9962930995766612  0.0011047370027200
  0.6786332824650145  0.9108018890045102  0.0527086374572860
  0.8111817736382960  0.8962226060864964  0.0756678071729979
  0.9288571557973668  0.0203119142088752  0.9877722762573100
  0.0202927972049380  0.0170847792998146  0.0380599916068718
  0.1120729373637843  0.9084532343705334  0.0347253278275517
  0.2334743664541179  0.1233701173428514  0.0304863596919134
  0.2356215821440628  0.1113372973546944  0.0642008454524756
  0.2936510832676120  0.1040278286470198  0.0398808089611578
  0.4244176214031370  0.1422795091253732  0.0550901466520273
  0.4272212642035029  0.0514476306409293  0.0320596382466576
  0.4594681846954032  0.1064236021212750  0.0330041388649107
  0.7286673725647645  0.9565835714298245  0.0490209964415698
  0.5817081715614023  0.0808331549132077  0.9999622442247116
  0.8148675205297877  0.0766024235492324  0.9978833301478076
  0.9037081472805539  0.0047891861875797  0.0664691683598875
  0.8214597919356166  0.0581229761800017  0.0754683400482961
  0.9974673754976990  0.1013882228803382  0.0066476942452880
  0.0757254222903470  0.2270618071964776  0.0227524737703533
  0.0679847343453162  0.0421997234395377  0.0205918981655415
  0.1257497988660745  0.0640007537101610  0.0405905600776109
  0.1645459852714737  0.1760318066027722  0.0798988143484891
  0.3578823339990649  0.2166692180750260  0.0847177577217906
  0.4119256135102276  0.2400048295005064  0.0187923495987761
  0.6423206704732110  0.1265245963637369  0.0394839150259614
  0.6732287104161969  0.1943747573769983  0.9814406702327574
  0.6331247518380678  0.3846886918570007  0.0028140128697629
  0.8992474530691084  0.0783055746858565  0.0235000707993080
  0.8181026183965656  0.1564158745904081  0.0152256666698989
  0.9373742920615982  0.1363098271123135  0.0056489006875680
  0.0303642145157283  0.2639790677440814  0.9915506633731042
  0.0151293078358421  0.2316554685464496  0.0372666833045585
  0.0747092052018203  0.0635989507001824  0.0553575795618357
  0.1312671756545924  0.2282668251604321  0.9962063936540773
  0.2043645193031693  0.3076579027145812  0.0550746100578223
  0.3757545840127108  0.2847015655870493  0.0057651905674803
  0.3994328896271711  0.1920407875231476  0.0697966014605029
  0.5559769970337172  0.2284352940347461  0.0123249764497970
  0.5824916995100011  0.1750182396739959  0.0597609946003175
  0.7683701039872020  0.2882112842320126  0.9692707608175226
  0.7701056342108288  0.1111322965814026  0.0742606276901938
  0.8393458434594478  0.2396650798298907  0.9669282417055314
  0.9433719838159575  0.2036065110451730  0.0228992321840167
  0.9816867545187122  0.2765211537098295  0.0585435168704080
  0.0976557378499479  0.2715288990458120  0.0354290705389033
  0.0894826724377751  0.3007082075466059  0.0620397109877970
  0.1090217252429682  0.2106093764370911  0.0662620843775841
  0.1662707598570421  0.3155854819630264  0.0882510720376501
  0.4273553087521762  0.2420206679698538  0.0843221080048835
  0.5609361917648670  0.2787308691241677  0.0685124355803239
  0.6019274755280080  0.3715969334165550  0.9777746617293985
  0.7207095924672728  0.2091105059304610  0.9978886079148097
  0.7910812524079347  0.3822384683540463  0.0036138137422981
  0.7409215421298541  0.2650641657407462  0.0586584927909541
  0.9066504465385705  0.3205422473748882  0.0326087634350571
  0.9464844545972397  0.3093452994102321  0.0039757798082505
  0.9314822854764770  0.3088642175531930  0.0586613328570920
  0.1655832815301679  0.5108210530181481  0.0013593510323631
  0.1827250363353059  0.2536069488056185  0.0356198174367606
  0.3837433296098212  0.3448016910595655  0.0676647064160818
  0.2974803502523002  0.4356197879095518  0.1062153022277741
  0.3126040207523531  0.2522450885530745  0.0624582075396560
  0.5757166129959188  0.4103052514602368  0.0020518668766627
  0.4651279145637375  0.4622214953975927  0.0287700266710402
  0.5639421469586878  0.4142099693267269  0.9640719114727077
  0.6538644334731458  0.4761714722946166  0.0956154226800976
  0.7467980631710205  0.4080611868999640  0.0178808190069191
  0.8454549224624373  0.4306428234069202  0.0589249593052585
  0.9467415456893278  0.3840817411831949  0.0394890726982879
  0.9567808175566341  0.4116047458050502  0.0694246132142879
  0.1059233649865874  0.4747504546481096  0.9960328929625533
  0.1113036470318036  0.6072917805608995  0.0191989292946602
  0.3940950423881660  0.3932485525689202  0.1052883043862209
  0.3206979960039931  0.4728970518627804  0.0733775670027228
  0.4009507016349616  0.5500180466279261  0.9506031976483342
  0.4181299092061792  0.5039302339028211  0.0604164690882811
  0.6521074211552218  0.4233365863016303  0.0929426028961231
  0.5224724581608200  0.4529982097272267  0.0930974964644093
  0.7636258365485276  0.4985151198358579  0.0603240857157985
  0.8091057661165735  0.4778068638829538  0.1247629577962002
  0.7955558278496540  0.5554129970755497  0.0627062621638501
  0.0116911543665239  0.4080111409247564  0.0614730493265014
  0.0254960370806216  0.5769391203254841  0.0826936870035269
  0.1292149175755384  0.5072598656871534  0.1045026482692393
  0.2774559006718036  0.5338991804665696  0.0697681575685607
  0.2097102999314799  0.5289080035440605  0.0906412692245553
  0.3252976366348364  0.5665493869332181  0.0254411877541258
  0.2818819716806971  0.5780023684284075  0.0065938850951923
  0.4441071116136399  0.5467705529816413  0.9810968338441128
  0.3781267776507065  0.5752775836870327  0.0134358827782251
  0.6952000531507920  0.5311567052924957  0.1079464981176201
  0.7856862153589645  0.5197813668671358  0.0324703544555476
  0.8489079438964424  0.4899525173907406  0.1052343816145012
  0.8901225046155972  0.6362834094962864  0.0481994181035645
  0.9754596758930418  0.6341527040715889  0.9985429429006274
  0.0398348095291112  0.6806694353665392  0.0443805525416749
  0.1774934939406094  0.5743597033897743  0.0367310411683732
  0.1315565891449069  0.6277395102437566  0.0767381019372309
  0.2174876878591547  0.7335129001696998  0.0119314622068671
  0.2860207138386102  0.6493244838594023  0.0475276706523431
  0.2572343101359991  0.7427302151863202  0.0342324530769886
  0.3102296422523523  0.7443589059618461  0.0642638751863345
  0.5109661636099574  0.5248022472892870  0.0257787045803255
  0.7048893760450241  0.5067601024261350  0.0387839172761915
  0.7485444592812556  0.6334911696725527  0.9963627302428364
  0.8377322853919935  0.5877244606362666  0.0348397154587659
  0.8645128038032865  0.6351914655379360  0.9594709470572909
  0.1054812451454481  0.6851976355110807  0.0110946688952325
  0.0829454016348308  0.6458154378740275  0.0558235596131311
  0.1474979284394777  0.6994637375888573  0.0689668058467063
  0.2397901384841674  0.6739353083858148  0.0361410230621502
  0.3177391992368186  0.6641375776282104  0.9530289331916535
  0.2624574233130303  0.8005284883389550  0.0229997545082838
  0.3063661658925270  0.7124420711470876  0.1358659239242783
  0.5812118979608130  0.7618038690475970  0.9706687584116409
  0.6269190770331576  0.6363480877562679  0.0123830084780820
  0.5730687108111709  0.6652475370342756  0.0196556536301955
  0.6041406492983299  0.6677285960398507  0.0464416860066095
  0.7693397447798347  0.6717706707454880  0.0202116028181507
  0.7907455309816598  0.7217665572252159  0.9934327608243336
  0.9247922302606639  0.7110928153971372  0.0552755831551153
  0.0126530970802392  0.7238692423830457  0.1056912030465753
  0.0392453420041079  0.6341912653681092  0.9953808892713738
  0.2624347605477979  0.8108244933778010  0.9921351476146469
  0.2140143039196403  0.6935563514711944  0.9744948482230384
  0.3358664351956619  0.8377947820577631  0.0605997124868694
  0.3573027195949408  0.7725924827727937  0.0750725585728844
  0.3740070365146195  0.7678903809752242  0.0182470207085430
  0.5275676729156658  0.6444958651423534  0.1011407397354986
  0.5208708849554000  0.6473292216312316  0.0431338206675207
  0.6353225262637210  0.7804142302155910  0.0494162390615855
  0.7307043630063390  0.7725251822401447  0.0562700550387376
  0.8010665756224569  0.7894459704320269  0.0549961974965569
  0.9007118575251809  0.8130514693207047  0.0340977945588108
  0.9243899675514058  0.8878607817249460  0.0350621757919924
  0.1584954521254076  0.8213715224960154  0.0644758072554339
  0.2228848975173960  0.7688550499301527  0.0883907212756370
  0.2687910200520349  0.7369315147990037  0.1179256464377048
  0.2956907031094573  0.9166167549307147  0.0090654645366541
  0.4186897566343006  0.8852815242833714  0.0686825844817847