super cell:13X13X26
-196274
  46.091876914307420   0.000000000000000   0.000000000000000
   0.000000000000000  46.091876914307420   0.000000000000000
   0.000000000000000   0.000000000000000  92.183753828614840
 8788
 Direct
   0.000000000000000   0.000000000000000   0.000000000000000
   0.076923076923077   0.000000000000000   0.000000000000000
   0.153846153846154   0.000000000000000   0.000000000000000
   0.230769230769231   0.000000000000000   0.000000000000000
   0.307692307692308   0.000000000000000   0.000000000000000
   0.384615384615385   0.000000000000000   0.000000000000000
   0.461538461538462   0.000000000000000   0.000000000000000
   0.538461538461538   0.000000000000000   0.000000000000000
   0.615384615384615   0.000000000000000   0.000000000000000
   0.692307692307692   0.000000000000000   0.000000000000000
   0.769230769230769   0.000000000000000   0.000000000000000
   0.846153846153846   0.000000000000000   0.000000000000000
   0.923076923076923   0.000000000000000   0.000000000000000
   0.000000000000000   0.076923076923077   0.000000000000000
   0.076923076923077   0.076923076923077   0.000000000000000
   0.153846153846154   0.076923076923077   0.000000000000000
   0.230769230769231   0.076923076923077   0.000000000000000
   0.307692307692308   0.076923076923077   0.000000000000000
   0.384615384615385   0.076923076923077   0.000000000000000
   0.461538461538462   0.076923076923077   0.000000000000000
   0.538461538461538   0.076923076923077   0.000000000000000
   0.615384615384615   0.076923076923077   0.000000000000000
   0.692307692307692   0.076923076923077   0.000000000000000
   0.769230769230769   0.076923076923077   0.000000000000000
   0.846153846153846   0.076923076923077   0.000000000000000
   0.923076923076923   0.076923076923077   0.000000000000000
   0.000000000000000   0.153846153846154   0.000000000000000
   0.076923076923077   0.153846153846154   0.000000000000000
   0.153846153846154   0.153846153846154   0.000000000000000
   0.230769230769231   0.153846153846154   0.000000000000000
   0.307692307692308   0.153846153846154   0.000000000000000
   0.384615384615385   0.153846153846154   0.000000000000000
   0.461538461538462   0.153846153846154   0.000000000000000
   0.538461538461538   0.153846153846154   0.000000000000000
   0.615384615384615   0.153846153846154   0.000000000000000
   0.692307692307692   0.153846153846154   0.000000000000000
   0.769230769230769   0.153846153846154   0.000000000000000
   0.846153846153846   0.153846153846154   0.000000000000000
   0.923076923076923   0.153846153846154   0.000000000000000
   0.000000000000000   0.230769230769231   0.000000000000000
   0.076923076923077   0.230769230769231   0.000000000000000
   0.153846153846154   0.230769230769231   0.000000000000000
   0.230769230769231   0.230769230769231   0.000000000000000
   0.307692307692308   0.230769230769231   0.000000000000000
   0.384615384615385   0.230769230769231   0.000000000000000
   0.461538461538462   0.230769230769231   0.000000000000000
   0.538461538461538   0.230769230769231   0.000000000000000
   0.615384615384615   0.230769230769231   0.000000000000000
   0.692307692307692   0.230769230769231   0.000000000000000
   0.769230769230769   0.230769230769231   0.000000000000000
   0.846153846153846   0.230769230769231   0.000000000000000
   0.923076923076923   0.230769230769231   0.000000000000000
   0.000000000000000   0.307692307692308   0.000000000000000
   0.076923076923077   0.307692307692308   0.000000000000000
   0.153846153846154   0.307692307692308   0.000000000000000
   0.230769230769231   0.307692307692308   0.000000000000000
   0.307692307692308   0.307692307692308   0.000000000000000
   0.384615384615385   0.307692307692308   0.000000000000000
   0.461538461538462   0.307692307692308   0.000000000000000
   0.538461538461538   0.307692307692308   0.000000000000000
   0.615384615384615   0.307692307692308   0.000000000000000
   0.692307692307692   0.307692307692308   0.000000000000000
   0.769230769230769   0.307692307692308   0.000000000000000
   0.846153846153846   0.307692307692308   0.000000000000000
   0.923076923076923   0.307692307692308   0.000000000000000
   0.000000000000000   0.384615384615385   0.000000000000000
   0.076923076923077   0.384615384615385   0.000000000000000
   0.153846153846154   0.384615384615385   0.000000000000000
   0.230769230769231   0.384615384615385   0.000000000000000
   0.307692307692308   0.384615384615385   0.000000000000000
   0.384615384615385   0.384615384615385   0.000000000000000
   0.461538461538462   0.384615384615385   0.000000000000000
   0.538461538461538   0.384615384615385   0.000000000000000
   0.615384615384615   0.384615384615385   0.000000000000000
   0.692307692307692   0.384615384615385   0.000000000000000
   0.769230769230769   0.384615384615385   0.000000000000000
   0.846153846153846   0.384615384615385   0.000000000000000
   0.923076923076923   0.384615384615385   0.000000000000000
   0.000000000000000   0.461538461538462   0.000000000000000
   0.076923076923077   0.461538461538462   0.000000000000000
   0.153846153846154   0.461538461538462   0.000000000000000
   0.230769230769231   0.461538461538462   0.000000000000000
   0.307692307692308   0.461538461538462   0.000000000000000
   0.384615384615385   0.461538461538462   0.000000000000000
   0.461538461538462   0.461538461538462   0.000000000000000
   0.538461538461538   0.461538461538462   0.000000000000000
   0.615384615384615   0.461538461538462   0.000000000000000
   0.692307692307692   0.461538461538462   0.000000000000000
   0.769230769230769   0.461538461538462   0.000000000000000
   0.846153846153846   0.461538461538462   0.000000000000000
   0.923076923076923   0.461538461538462   0.000000000000000
   0.000000000000000   0.538461538461538   0.000000000000000
   0.076923076923077   0.538461538461538   0.000000000000000
   0.153846153846154   0.538461538461538   0.000000000000000
   0.230769230769231   0.538461538461538   0.000000000000000
   0.307692307692308   0.538461538461538   0.000000000000000
   0.384615384615385   0.538461538461538   0.000000000000000
   0.461538461538462   0.538461538461538   0.000000000000000
   0.538461538461538   0.538461538461538   0.000000000000000
   0.615384615384615   0.538461538461538   0.000000000000000
   0.692307692307692   0.538461538461538   0.000000000000000
   0.769230769230769   0.538461538461538   0.000000000000000
   0.846153846153846   0.538461538461538   0.000000000000000
   0.923076923076923   0.538461538461538   0.000000000000000
   0.000000000000000   0.615384615384615   0.000000000000000
   0.076923076923077   0.615384615384615   0.000000000000000
   0.153846153846154   0.615384615384615   0.000000000000000
   0.230769230769231   0.615384615384615   0.000000000000000
   0.307692307692308   0.615384615384615   0.000000000000000
   0.384615384615385   0.615384615384615   0.000000000000000
   0.461538461538462   0.615384615384615   0.000000000000000
   0.538461538461538   0.615384615384615   0.000000000000000
   0.615384615384615   0.615384615384615   0.000000000000000
   0.692307692307692   0.615384615384615   0.000000000000000
   0.769230769230769   0.615384615384615   0.000000000000000
   0.846153846153846   0.615384615384615   0.000000000000000
   0.923076923076923   0.615384615384615   0.000000000000000
   0.000000000000000   0.692307692307692   0.000000000000000
   0.076923076923077   0.692307692307692   0.000000000000000
   0.153846153846154   0.692307692307692   0.000000000000000
   0.230769230769231   0.692307692307692   0.000000000000000
   0.307692307692308   0.692307692307692   0.000000000000000
   0.384615384615385   0.692307692307692   0.000000000000000
   0.461538461538462   0.692307692307692   0.000000000000000
   0.538461538461538   0.692307692307692   0.000000000000000
   0.615384615384615   0.692307692307692   0.000000000000000
   0.692307692307692   0.692307692307692   0.000000000000000
   0.769230769230769   0.692307692307692   0.000000000000000
   0.846153846153846   0.692307692307692   0.000000000000000
   0.923076923076923   0.692307692307692   0.000000000000000
   0.000000000000000   0.769230769230769   0.000000000000000
   0.076923076923077   0.769230769230769   0.000000000000000
   0.153846153846154   0.769230769230769   0.000000000000000
   0.230769230769231   0.769230769230769   0.000000000000000
   0.307692307692308   0.769230769230769   0.000000000000000
   0.384615384615385   0.769230769230769   0.000000000000000
   0.461538461538462   0.769230769230769   0.000000000000000
   0.538461538461538   0.769230769230769   0.000000000000000
   0.615384615384615   0.769230769230769   0.000000000000000
   0.692307692307692   0.769230769230769   0.000000000000000
   0.769230769230769   0.769230769230769   0.000000000000000
   0.846153846153846   0.769230769230769   0.000000000000000
   0.923076923076923   0.769230769230769   0.000000000000000
   0.000000000000000   0.846153846153846   0.000000000000000
   0.076923076923077   0.846153846153846   0.000000000000000
   0.153846153846154   0.846153846153846   0.000000000000000
   0.230769230769231   0.846153846153846   0.000000000000000
   0.307692307692308   0.846153846153846   0.000000000000000
   0.384615384615385   0.846153846153846   0.000000000000000
   0.461538461538462   0.846153846153846   0.000000000000000
   0.538461538461538   0.846153846153846   0.000000000000000
   0.615384615384615   0.846153846153846   0.000000000000000
   0.692307692307692   0.846153846153846   0.000000000000000
   0.769230769230769   0.846153846153846   0.000000000000000
   0.846153846153846   0.846153846153846   0.000000000000000
   0.923076923076923   0.846153846153846   0.000000000000000
   0.000000000000000   0.923076923076923   0.000000000000000
   0.076923076923077   0.923076923076923   0.000000000000000
   0.153846153846154   0.923076923076923   0.000000000000000
   0.230769230769231   0.923076923076923   0.000000000000000
   0.307692307692308   0.923076923076923   0.000000000000000
   0.384615384615385   0.923076923076923   0.000000000000000
   0.461538461538462   0.923076923076923   0.000000000000000
   0.538461538461538   0.923076923076923   0.000000000000000
   0.615384615384615   0.923076923076923   0.000000000000000
   0.692307692307692   0.923076923076923   0.000000000000000
   0.769230769230769   0.923076923076923   0.000000000000000
   0.846153846153846   0.923076923076923   0.000000000000000
   0.923076923076923   0.923076923076923   0.000000000000000
   0.038461538461538   0.038461538461538   0.019230769230769
   0.115384615384615   0.038461538461538   0.019230769230769
   0.192307692307692   0.038461538461538   0.019230769230769
   0.269230769230769   0.038461538461538   0.019230769230769
   0.346153846153846   0.038461538461538   0.019230769230769
   0.423076923076923   0.038461538461538   0.019230769230769
   0.500000000000000   0.038461538461538   0.019230769230769
   0.576923076923077   0.038461538461538   0.019230769230769
   0.653846153846154   0.038461538461538   0.019230769230769
   0.730769230769231   0.038461538461538   0.019230769230769
   0.807692307692308   0.038461538461538   0.019230769230769
   0.884615384615385   0.038461538461538   0.019230769230769
   0.961538461538462   0.038461538461538   0.019230769230769
   0.038461538461538   0.115384615384615   0.019230769230769
   0.115384615384615   0.115384615384615   0.019230769230769
   0.192307692307692   0.115384615384615   0.019230769230769
   0.269230769230769   0.115384615384615   0.019230769230769
   0.346153846153846   0.115384615384615   0.019230769230769
   0.423076923076923   0.115384615384615   0.019230769230769
   0.500000000000000   0.115384615384615   0.019230769230769
   0.576923076923077   0.115384615384615   0.019230769230769
   0.653846153846154   0.115384615384615   0.019230769230769
   0.730769230769231   0.115384615384615   0.019230769230769
   0.807692307692308   0.115384615384615   0.019230769230769
   0.884615384615385   0.115384615384615   0.019230769230769
   0.961538461538462   0.115384615384615   0.019230769230769
   0.038461538461538   0.192307692307692   0.019230769230769
   0.115384615384615   0.192307692307692   0.019230769230769
   0.192307692307692   0.192307692307692   0.019230769230769
   0.269230769230769   0.192307692307692   0.019230769230769
   0.346153846153846   0.192307692307692   0.019230769230769
   0.423076923076923   0.192307692307692   0.019230769230769
   0.500000000000000   0.192307692307692   0.019230769230769
   0.576923076923077   0.192307692307692   0.019230769230769
   0.653846153846154   0.192307692307692   0.019230769230769
   0.730769230769231   0.192307692307692   0.019230769230769
   0.807692307692308   0.192307692307692   0.019230769230769
   0.884615384615385   0.192307692307692   0.019230769230769
   0.961538461538462   0.192307692307692   0.019230769230769
   0.038461538461538   0.269230769230769   0.019230769230769
   0.115384615384615   0.269230769230769   0.019230769230769
   0.192307692307692   0.269230769230769   0.019230769230769
   0.269230769230769   0.269230769230769   0.019230769230769
   0.346153846153846   0.269230769230769   0.019230769230769
   0.423076923076923   0.269230769230769   0.019230769230769
   0.500000000000000   0.269230769230769   0.019230769230769
   0.576923076923077   0.269230769230769   0.019230769230769
   0.653846153846154   0.269230769230769   0.019230769230769
   0.730769230769231   0.269230769230769   0.019230769230769
   0.807692307692308   0.269230769230769   0.019230769230769
   0.884615384615385   0.269230769230769   0.019230769230769
   0.961538461538462   0.269230769230769   0.019230769230769
   0.038461538461538   0.346153846153846   0.019230769230769
   0.115384615384615   0.346153846153846   0.019230769230769
   0.192307692307692   0.346153846153846   0.019230769230769
   0.269230769230769   0.346153846153846   0.019230769230769
   0.346153846153846   0.346153846153846   0.019230769230769
   0.423076923076923   0.346153846153846   0.019230769230769
   0.500000000000000   0.346153846153846   0.019230769230769
   0.576923076923077   0.346153846153846   0.019230769230769
   0.653846153846154   0.346153846153846   0.019230769230769
   0.730769230769231   0.346153846153846   0.019230769230769
   0.807692307692308   0.346153846153846   0.019230769230769
   0.884615384615385   0.346153846153846   0.019230769230769
   0.961538461538462   0.346153846153846   0.019230769230769
   0.038461538461538   0.423076923076923   0.019230769230769
   0.115384615384615   0.423076923076923   0.019230769230769
   0.192307692307692   0.423076923076923   0.019230769230769
   0.269230769230769   0.423076923076923   0.019230769230769
   0.346153846153846   0.423076923076923   0.019230769230769
   0.423076923076923   0.423076923076923   0.019230769230769
   0.500000000000000   0.423076923076923   0.019230769230769
   0.576923076923077   0.423076923076923   0.019230769230769
   0.653846153846154   0.423076923076923   0.019230769230769
   0.730769230769231   0.423076923076923   0.019230769230769
   0.807692307692308   0.423076923076923   0.019230769230769
   0.884615384615385   0.423076923076923   0.019230769230769
   0.961538461538462   0.423076923076923   0.019230769230769
   0.038461538461538   0.500000000000000   0.019230769230769
   0.115384615384615   0.500000000000000   0.019230769230769
   0.192307692307692   0.500000000000000   0.019230769230769
   0.269230769230769   0.500000000000000   0.019230769230769
   0.346153846153846   0.500000000000000   0.019230769230769
   0.423076923076923   0.500000000000000   0.019230769230769
   0.500000000000000   0.500000000000000   0.019230769230769
   0.576923076923077   0.500000000000000   0.019230769230769
   0.653846153846154   0.500000000000000   0.019230769230769
   0.730769230769231   0.500000000000000   0.019230769230769
   0.807692307692308   0.500000000000000   0.019230769230769
   0.884615384615385   0.500000000000000   0.019230769230769
   0.961538461538462   0.500000000000000   0.019230769230769
   0.038461538461538   0.576923076923077   0.019230769230769
   0.115384615384615   0.576923076923077   0.019230769230769
   0.192307692307692   0.576923076923077   0.019230769230769
   0.269230769230769   0.576923076923077   0.019230769230769
   0.346153846153846   0.576923076923077   0.019230769230769
   0.423076923076923   0.576923076923077   0.019230769230769
   0.500000000000000   0.576923076923077   0.019230769230769
   0.576923076923077   0.576923076923077   0.019230769230769
   0.653846153846154   0.576923076923077   0.019230769230769
   0.730769230769231   0.576923076923077   0.019230769230769
   0.807692307692308   0.576923076923077   0.019230769230769
   0.884615384615385   0.576923076923077   0.019230769230769
   0.961538461538462   0.576923076923077   0.019230769230769
   0.038461538461538   0.653846153846154   0.019230769230769
   0.115384615384615   0.653846153846154   0.019230769230769
   0.192307692307692   0.653846153846154   0.019230769230769
   0.269230769230769   0.653846153846154   0.019230769230769
   0.346153846153846   0.653846153846154   0.019230769230769
   0.423076923076923   0.653846153846154   0.019230769230769
   0.500000000000000   0.653846153846154   0.019230769230769
   0.576923076923077   0.653846153846154   0.019230769230769
   0.653846153846154   0.653846153846154   0.019230769230769
   0.730769230769231   0.653846153846154   0.019230769230769
   0.807692307692308   0.653846153846154   0.019230769230769
   0.884615384615385   0.653846153846154   0.019230769230769
   0.961538461538462   0.653846153846154   0.019230769230769
   0.038461538461538   0.730769230769231   0.019230769230769
   0.115384615384615   0.730769230769231   0.019230769230769
   0.192307692307692   0.730769230769231   0.019230769230769
   0.269230769230769   0.730769230769231   0.019230769230769
   0.346153846153846   0.730769230769231   0.019230769230769
   0.423076923076923   0.730769230769231   0.019230769230769
   0.500000000000000   0.730769230769231   0.019230769230769
   0.576923076923077   0.730769230769231   0.019230769230769
   0.653846153846154   0.730769230769231   0.019230769230769
   0.730769230769231   0.730769230769231   0.019230769230769
   0.807692307692308   0.730769230769231   0.019230769230769
   0.884615384615385   0.730769230769231   0.019230769230769
   0.961538461538462   0.730769230769231   0.019230769230769
   0.038461538461538   0.807692307692308   0.019230769230769
   0.115384615384615   0.807692307692308   0.019230769230769
   0.192307692307692   0.807692307692308   0.019230769230769
   0.269230769230769   0.807692307692308   0.019230769230769
   0.346153846153846   0.807692307692308   0.019230769230769
   0.423076923076923   0.807692307692308   0.019230769230769
   0.500000000000000   0.807692307692308   0.019230769230769
   0.576923076923077   0.807692307692308   0.019230769230769
   0.653846153846154   0.807692307692308   0.019230769230769
   0.730769230769231   0.807692307692308   0.019230769230769
   0.807692307692308   0.807692307692308   0.019230769230769
   0.884615384615385   0.807692307692308   0.019230769230769
   0.961538461538462   0.807692307692308   0.019230769230769
   0.038461538461538   0.884615384615385   0.019230769230769
   0.115384615384615   0.884615384615385   0.019230769230769
   0.192307692307692   0.884615384615385   0.019230769230769
   0.269230769230769   0.884615384615385   0.019230769230769
   0.346153846153846   0.884615384615385   0.019230769230769
   0.423076923076923   0.884615384615385   0.019230769230769
   0.500000000000000   0.884615384615385   0.019230769230769
   0.576923076923077   0.884615384615385   0.019230769230769
   0.653846153846154   0.884615384615385   0.019230769230769
   0.730769230769231   0.884615384615385   0.019230769230769
   0.807692307692308   0.884615384615385   0.019230769230769
   0.884615384615385   0.884615384615385   0.019230769230769
   0.961538461538462   0.884615384615385   0.019230769230769
   0.038461538461538   0.961538461538462   0.019230769230769
   0.115384615384615   0.961538461538462   0.019230769230769
   0.192307692307692   0.961538461538462   0.019230769230769
   0.269230769230769   0.961538461538462   0.019230769230769
   0.346153846153846   0.961538461538462   0.019230769230769
   0.423076923076923   0.961538461538462   0.019230769230769
   0.500000000000000   0.961538461538462   0.019230769230769
   0.576923076923077   0.961538461538462   0.019230769230769
   0.653846153846154   0.961538461538462   0.019230769230769
   0.730769230769231   0.961538461538462   0.019230769230769
   0.807692307692308   0.961538461538462   0.019230769230769
   0.884615384615385   0.961538461538462   0.019230769230769
   0.961538461538462   0.961538461538462   0.019230769230769
   0.000000000000000   0.000000000000000   0.038461538461538
   0.076923076923077   0.000000000000000   0.038461538461538
   0.153846153846154   0.000000000000000   0.038461538461538
   0.230769230769231   0.000000000000000   0.038461538461538
   0.307692307692308   0.000000000000000   0.038461538461538
   0.384615384615385   0.000000000000000   0.038461538461538
   0.461538461538462   0.000000000000000   0.038461538461538
   0.538461538461538   0.000000000000000   0.038461538461538
   0.615384615384615   0.000000000000000   0.038461538461538
   0.692307692307692   0.000000000000000   0.038461538461538
   0.769230769230769   0.000000000000000   0.038461538461538
   0.846153846153846   0.000000000000000   0.038461538461538
   0.923076923076923   0.000000000000000   0.038461538461538
   0.000000000000000   0.076923076923077   0.038461538461538
   0.076923076923077   0.076923076923077   0.038461538461538
   0.153846153846154   0.076923076923077   0.038461538461538
   0.230769230769231   0.076923076923077   0.038461538461538
   0.307692307692308   0.076923076923077   0.038461538461538
   0.384615384615385   0.076923076923077   0.038461538461538
   0.461538461538462   0.076923076923077   0.038461538461538
   0.538461538461538   0.076923076923077   0.038461538461538
   0.615384615384615   0.076923076923077   0.038461538461538
   0.692307692307692   0.076923076923077   0.038461538461538
   0.769230769230769   0.076923076923077   0.038461538461538
   0.846153846153846   0.076923076923077   0.038461538461538
   0.923076923076923   0.076923076923077   0.038461538461538
   0.000000000000000   0.153846153846154   0.038461538461538
   0.076923076923077   0.153846153846154   0.038461538461538
   0.153846153846154   0.153846153846154   0.038461538461538
   0.230769230769231   0.153846153846154   0.038461538461538
   0.307692307692308   0.153846153846154   0.038461538461538
   0.384615384615385   0.153846153846154   0.038461538461538
   0.461538461538462   0.153846153846154   0.038461538461538
   0.538461538461538   0.153846153846154   0.038461538461538
   0.615384615384615   0.153846153846154   0.038461538461538
   0.692307692307692   0.153846153846154   0.038461538461538
   0.769230769230769   0.153846153846154   0.038461538461538
   0.846153846153846   0.153846153846154   0.038461538461538
   0.923076923076923   0.153846153846154   0.038461538461538
   0.000000000000000   0.230769230769231   0.038461538461538
   0.076923076923077   0.230769230769231   0.038461538461538
   0.153846153846154   0.230769230769231   0.038461538461538
   0.230769230769231   0.230769230769231   0.038461538461538
   0.307692307692308   0.230769230769231   0.038461538461538
   0.384615384615385   0.230769230769231   0.038461538461538
   0.461538461538462   0.230769230769231   0.038461538461538
   0.538461538461538   0.230769230769231   0.038461538461538
   0.615384615384615   0.230769230769231   0.038461538461538
   0.692307692307692   0.230769230769231   0.038461538461538
   0.769230769230769   0.230769230769231   0.038461538461538
   0.846153846153846   0.230769230769231   0.038461538461538
   0.923076923076923   0.230769230769231   0.038461538461538
   0.000000000000000   0.307692307692308   0.038461538461538
   0.076923076923077   0.307692307692308   0.038461538461538
   0.153846153846154   0.307692307692308   0.038461538461538
   0.230769230769231   0.307692307692308   0.038461538461538
   0.307692307692308   0.307692307692308   0.038461538461538
   0.384615384615385   0.307692307692308   0.038461538461538
   0.461538461538462   0.307692307692308   0.038461538461538
   0.538461538461538   0.307692307692308   0.038461538461538
   0.615384615384615   0.307692307692308   0.038461538461538
   0.692307692307692   0.307692307692308   0.038461538461538
   0.769230769230769   0.307692307692308   0.038461538461538
   0.846153846153846   0.307692307692308   0.038461538461538
   0.923076923076923   0.307692307692308   0.038461538461538
   0.000000000000000   0.384615384615385   0.038461538461538
   0.076923076923077   0.384615384615385   0.038461538461538
   0.153846153846154   0.384615384615385   0.038461538461538
   0.230769230769231   0.384615384615385   0.038461538461538
   0.307692307692308   0.384615384615385   0.038461538461538
   0.384615384615385   0.384615384615385   0.038461538461538
   0.461538461538462   0.384615384615385   0.038461538461538
   0.538461538461538   0.384615384615385   0.038461538461538
   0.615384615384615   0.384615384615385   0.038461538461538
   0.692307692307692   0.384615384615385   0.038461538461538
   0.769230769230769   0.384615384615385   0.038461538461538
   0.846153846153846   0.384615384615385   0.038461538461538
   0.923076923076923   0.384615384615385   0.038461538461538
   0.000000000000000   0.461538461538462   0.038461538461538
   0.076923076923077   0.461538461538462   0.038461538461538
   0.153846153846154   0.461538461538462   0.038461538461538
   0.230769230769231   0.461538461538462   0.038461538461538
   0.307692307692308   0.461538461538462   0.038461538461538
   0.384615384615385   0.461538461538462   0.038461538461538
   0.461538461538462   0.461538461538462   0.038461538461538
   0.538461538461538   0.461538461538462   0.038461538461538
   0.615384615384615   0.461538461538462   0.038461538461538
   0.692307692307692   0.461538461538462   0.038461538461538
   0.769230769230769   0.461538461538462   0.038461538461538
   0.846153846153846   0.461538461538462   0.038461538461538
   0.923076923076923   0.461538461538462   0.038461538461538
   0.000000000000000   0.538461538461538   0.038461538461538
   0.076923076923077   0.538461538461538   0.038461538461538
   0.153846153846154   0.538461538461538   0.038461538461538
   0.230769230769231   0.538461538461538   0.038461538461538
   0.307692307692308   0.538461538461538   0.038461538461538
   0.384615384615385   0.538461538461538   0.038461538461538
   0.461538461538462   0.538461538461538   0.038461538461538
   0.538461538461538   0.538461538461538   0.038461538461538
   0.615384615384615   0.538461538461538   0.038461538461538
   0.692307692307692   0.538461538461538   0.038461538461538
   0.769230769230769   0.538461538461538   0.038461538461538
   0.846153846153846   0.538461538461538   0.038461538461538
   0.923076923076923   0.538461538461538   0.038461538461538
   0.000000000000000   0.615384615384615   0.038461538461538
   0.076923076923077   0.615384615384615   0.038461538461538
   0.153846153846154   0.615384615384615   0.038461538461538
   0.230769230769231   0.615384615384615   0.038461538461538
   0.307692307692308   0.615384615384615   0.038461538461538
   0.384615384615385   0.615384615384615   0.038461538461538
   0.461538461538462   0.615384615384615   0.038461538461538
   0.538461538461538   0.615384615384615   0.038461538461538
   0.615384615384615   0.615384615384615   0.038461538461538
   0.692307692307692   0.615384615384615   0.038461538461538
   0.769230769230769   0.615384615384615   0.038461538461538
   0.846153846153846   0.615384615384615   0.038461538461538
   0.923076923076923   0.615384615384615   0.038461538461538
   0.000000000000000   0.692307692307692   0.038461538461538
   0.076923076923077   0.692307692307692   0.038461538461538
   0.153846153846154   0.692307692307692   0.038461538461538
   0.230769230769231   0.692307692307692   0.038461538461538
   0.307692307692308   0.692307692307692   0.038461538461538
   0.384615384615385   0.692307692307692   0.038461538461538
   0.461538461538462   0.692307692307692   0.038461538461538
   0.538461538461538   0.692307692307692   0.038461538461538
   0.615384615384615   0.692307692307692   0.038461538461538
   0.692307692307692   0.692307692307692   0.038461538461538
   0.769230769230769   0.692307692307692   0.038461538461538
   0.846153846153846   0.692307692307692   0.038461538461538
   0.923076923076923   0.692307692307692   0.038461538461538
   0.000000000000000   0.769230769230769   0.038461538461538
   0.076923076923077   0.769230769230769   0.038461538461538
   0.153846153846154   0.769230769230769   0.038461538461538
   0.230769230769231   0.769230769230769   0.038461538461538
   0.307692307692308   0.769230769230769   0.038461538461538
   0.384615384615385   0.769230769230769   0.038461538461538
   0.461538461538462   0.769230769230769   0.038461538461538
   0.538461538461538   0.769230769230769   0.038461538461538
   0.615384615384615   0.769230769230769   0.038461538461538
   0.692307692307692   0.769230769230769   0.038461538461538
   0.769230769230769   0.769230769230769   0.038461538461538
   0.846153846153846   0.769230769230769   0.038461538461538
   0.923076923076923   0.769230769230769   0.038461538461538
   0.000000000000000   0.846153846153846   0.038461538461538
   0.076923076923077   0.846153846153846   0.038461538461538
   0.153846153846154   0.846153846153846   0.038461538461538
   0.230769230769231   0.846153846153846   0.038461538461538
   0.307692307692308   0.846153846153846   0.038461538461538
   0.384615384615385   0.846153846153846   0.038461538461538
   0.461538461538462   0.846153846153846   0.038461538461538