super cell:13X13X26                     
   1.00073678945000     
    46.0918769143074201    0.0000000000000000    0.0000000000000000
     0.0000000000000000   46.0918769143074201    0.0000000000000000
     0.0000000000000000    0.0000000000000000   92.1837538286148401
    8788
Direct
  0.9871509092903352  0.8547027772372502  0.0406870308412408
  0.1539834702686846  0.0417257916391378  0.0135670502398284
  0.0427813299151083  0.9044235528981659  0.0332802059624768
  0.3216501952267024  0.9274114795011954  0.0638252902588903
  0.4001043900634116  0.9953950236968367  0.9515305280286839
  0.4131899392581815  0.0656098992948770  0.9840194131734421
  0.5242446682317450  0.9278320721538407  0.0504132830185071
  0.4488456418281785  0.9956322119476226  0.9400686292250100
  0.6715178210922801  0.9335267208322904  0.0339860402966394
  0.7125812177440736  0.0703082208092312  0.0056448957654922
  0.6060226717895887  0.0071779234969398  0.9745455451406784
  0.8009744231008042  0.9684158423833225  0.0562005694214136
  0.9365895928199635  0.9654636485492318  0.0750750743746664
  0.9107016668142691  0.1326481806266955  0.9990300006893378
  0.0121155577105370  0.0863615285148924  0.0189229444451655
  0.1830300957960560  0.1448608623107219  0.9382939572614148
  0.1982331250379730  0.9976550710858803  0.0850775110660535
  0.4109900758232996  0.0927200395889543  0.0163174210431620
  0.3442584800526873  0.2018054664131128  0.0529853325994836
  0.5116992166703653  0.0306884951673538  0.0083252679518750
  0.5147420676143639  0.0845905689393547  0.9419060692035757
  0.6346556838893207  0.1482717335850694  0.9972523176968764
  0.7131189953472159  0.1244565779582913  0.9439125099092323
  0.8548813138647020  0.1369515289642464  0.0613542426992595
  0.7781822705835992  0.0433969241427832  0.0240874848682537
  0.8635857220714982  0.0814987180333233  0.0544972610304555
  0.0275276102182929  0.1345776560162619  0.0342225164978203
  0.0534833279892339  0.0610439567284686  0.9718320446287052
  0.0963361030379914  0.0473503668950599  0.9949730265008014
  0.2911169982691533  0.2584614426208773  0.0268090523348619
  0.3218263528240541  0.0643900085724525  0.9803929386898318
  0.3082684130135505  0.1462451834847727  0.0469146523268691
  0.3567997204303808  0.1780443692047058  0.9632122320206165
  0.5695998870046992  0.3426775732334946  0.9742039669571838
  0.4675502696709088  0.0906579315937179  0.9873297702785706
  0.6870245075602170  0.2367743013885715  0.0194545747181110
  0.6908975715831431  0.0346751153692182  0.9834306900371246
  0.9234670183048976  0.0781264395501111  0.0470979011452712
  0.9074180576415571  0.0868556857182128  0.9411247142252890
  0.9131945333537459  0.3129648504417801  0.0153774416042296
  0.0633430877418846  0.0368351260390654  0.0211902409875506
  0.0658227004575096  0.2922837078292417  0.0289493927001416
  0.2394883999751727  0.2343650446447825  0.9708444774513865
  0.2795667089950413  0.1061284260631652  0.9944813893997235
  0.2644411502821953  0.2854886543495141  0.9400244713676500
  0.4321075527078548  0.1883376666368406  0.0176099809459629
  0.5620302393729162  0.2364736723895220  0.9982332886002823
  0.5594295586559141  0.3300320236158001  0.9458451145197060
  0.4784024352515175  0.2311550568952967  0.0422214439991535
  0.7291929620592228  0.2100687832825727  0.0066783374938595
  0.8815377532271711  0.1249282301055175  0.0276376380721643
  0.8712079156567754  0.3481859772720668  0.0448307255118294
  0.0527329747208114  0.1165199008698536  0.9578388833268079
  0.2337377504453926  0.1704952453950384  0.9022256480774686
  0.1281313984857633  0.2763608460515670  0.0240072633614830
  0.1220849391321650  0.1480710921972204  0.0128294273730987
  0.2335650786331840  0.3871317815617559  0.0553291856935303
  0.2875240258929139  0.1742348219258147  0.0154228146211821
  0.3764063166188407  0.2149128984663591  0.0212120072087174
  0.4398485781898103  0.3079111530607150  0.0477747774446442
  0.5480575521459770  0.3455359337812638  0.0238936726360706
  0.6383300280825992  0.3153612814574061  0.9296624921474930
  0.8245617121964202  0.3345549135750616  0.1056388844088261
  0.9494107392565994  0.1924134266826414  0.9954617063478111
  0.9545036761988044  0.1892702790170020  0.0549408665776667
  0.1003068202130848  0.6355347193917922  0.9489379467039853
  0.9533667362191380  0.0241217633115269  0.0382284961920334
  0.2407700274616928  0.4633379411679357  0.0573438007536566
  0.2928412584861846  0.3968478307134049  0.9440705042622142
  0.2395434467658362  0.4991419756985209  0.0808026586620301
  0.4093305361265962  0.3683077480401096  0.9738512168137845
  0.5766630382622111  0.4876828765943344  0.9867851597987567
  0.5373929706344782  0.4287715239651746  0.0619633790591578
  0.6406327922734718  0.2518875767330755  0.9151111795217375
  0.8191267719844220  0.4609287243633915  0.0854715557863130
  0.7668822167133484  0.3066420509240046  0.9284149353989832
  0.7796098315879050  0.4083592517497507  0.0287375529721672
  0.1202154216587630  0.3009064004394872  0.9970919072551823
  0.0637258861340086  0.4663848344752637  0.0641964324500179
  0.1249857769944214  0.4087177630191192  0.9835039756924147
  0.1278371421305238  0.3483506625407529  0.9216727010203272
  0.2735463699792149  0.3468908596458675  0.9257288645275565
  0.5120733177013577  0.4597811957473112  0.0272139876112192
  0.4683676157426504  0.5297794833152381  0.0915676247515833
  0.4437870234816401  0.2461624430080889  0.0036566472195219
  0.5580247840015176  0.4383266586077923  0.0156705291003405
  0.6101587634768819  0.4004556252746170  0.0233937445527559
  0.7975231659866111  0.4716189467671299  0.0190835566280754
  0.7565947686118975  0.3663959143617461  0.0161494742698736
  0.7768917760906007  0.4166926951535004  0.9879210858117986
  0.9998567502640867  0.4923968339488667  0.0636851475116842
  0.0198016264007919  0.5292334733157844  0.0453440996174663
  0.0535453218423925  0.5412133422582386  0.0090644258990906
  0.1418728117034505  0.5550312509903961  0.9660856786444327
  0.1847333976697030  0.4141875409861697  0.9621304876555854
  0.2850651094165997  0.3754473412364447  0.0348040688929316
  0.4546835431255971  0.5166545160690319  0.0643362510308023
  0.6117080240765702  0.5248341228890752  0.0010282835666544
  0.5498959846963416  0.6005572380438338  0.0178097187311792
  0.5424025556566150  0.5193007790095550  0.9374848509318383
  0.6556756288716130  0.5086394471498750  0.9524753339115648
  0.8481576412408245  0.3911667257787741  0.0601566270664620
  0.8171675093067066  0.4675134220829165  0.0570635388017990
  0.8889085927028333  0.4793594376096593  0.0029619254649091
  0.9611825983238660  0.5116280762290444  0.9614992069667139
  0.0585547919202938  0.6011154613333716  0.9260258489903492
  0.1490074982871050  0.6459048718743858  0.9645565487721655
  0.1875021902836735  0.5763718702970166  0.0977274770245202
  0.2259065921825822  0.6244560616205135  0.9949517974397537
  0.3079839879401476  0.5272728902926431  0.9936135005647486
  0.5079955565929808  0.7618027964967027  0.9649334499699904
  0.3782519455406685  0.6258616655508291  0.9814251005967165
  0.6163265840395766  0.5393573600244963  0.0622435040779195
  0.6092806373530664  0.5664305769835565  0.0207410732526370
  0.8701848652471540  0.5748474653315512  0.0760224756216843
  0.9502571044001726  0.5685313591342052  0.9660870164115423
  0.8941160550827050  0.5528036431748902  0.0373706674574166
  0.9362394712204178  0.7171679225071586  0.9568386788371086
  0.0068522227198997  0.5965449242127221  0.0560717918786153
  0.1192343903255022  0.7261711581291621  0.9495445138445859
  0.1533528099675578  0.6129489176792262  0.9303797763197181
  0.2879319594246965  0.6637511675375976  0.9510732770937054
  0.4111119441618385  0.6734476398492220  0.9913426614375851
  0.3798735420628248  0.6976067104642496  0.0560020591869730
  0.5522229376955110  0.6366601457320584  0.9978249273691588
  0.6744037568719392  0.6973338322576410  0.9849423224806628
  0.8719676559061895  0.5884182195394345  0.9756605107114495
  0.7677862389230370  0.5252992236366225  0.9883992902916461
  0.7096185440046980  0.5609324929015074  0.0391497460500645
  0.9996670819722979  0.8091465890616405  0.9791167447693638
  0.9304067157016718  0.6064478298830878  0.8942366369131989
  0.8104120180697549  0.7730886041187759  0.9516594099514819
  0.2407313705707992  0.8216707815811901  0.0093358012025178
  0.0410507362272199  0.6933269081799693  0.0185088580353394
  0.3733788318113795  0.6713070352185184  0.0170032391879502
  0.3917271920873944  0.5916142527750665  0.0060440271629432
  0.3776083442948277  0.7584580605384588  0.9765600415640989
  0.5345976031957420  0.9779467085316824  0.9978897764840085
  0.6095485815273136  0.7119582275105358  0.0215318287233615
  0.6733141474225306  0.6835678471953415  0.0170273232465661
  0.7808539018977712  0.8888377897588455  0.9931448418209641
  0.8942524316566320  0.7880406449452408  0.0122539296546904
  0.8176023942008825  0.9265004435443487  0.8819819232262773
  0.9318953864973807  0.9597194651067653  0.0007012122962209
  0.8408588217133826  0.8786341795332007  0.0026902698996594
  0.1714871525380701  0.7991584661374915  0.9210375912201059
  0.1398272516481924  0.9525990574981194  0.0939061038658338
  0.3280896145884853  0.9522425989876240  0.8977372297129875
  0.2348564128125403  0.9737807518872685  0.9541327515058882
  0.4701539685041496  0.9522837138176143  0.9610698841965615
  0.4567901309869598  0.8272892439028894  0.0487963196819479
  0.7169774082566178  0.7932118838263449  0.0057855463493368
  0.7110599442351031  0.9986874657842861  0.0439904570616605
  0.7122066851480398  0.9132681680212755  0.9817202992632517
  0.7842647929323547  0.9681020669963374  0.0262703279717158
  0.7776775974527084  0.6590895463275714  0.9813206555723539
  0.8920850332041539  0.8905189158909010  0.0639202002922943
  0.1336035461729921  0.8556836896512365  0.9698184567058235
  0.2299979777827161  0.8064948279749728  0.9716269054147091
  0.3098676479656532  0.8248619484995316  0.0165109715087226
  0.2527521746630015  0.0373748367518303  0.0749159455584305
  0.3955009299929770  0.0004146559871927  0.9959540489305425
  0.4399539377362913  0.8326231986516959  0.0107576121674171
  0.5076511962073198  0.0029125483979442  0.9638086776299701
  0.4854063209192745  0.8884722639559897  0.0329045949506508
  0.6037479625392379  0.0504883184820955  0.0037263322633621
  0.6896049862909663  0.8821458916829954  0.9539747567289325
  0.8258679807949534  0.8003741224511884  0.9758139642323016
  0.9709984671721372  0.9545357613138279  0.0250400758549034
  0.0077506232172126  0.1000497527067381  0.9803214572813772
  0.0589564782294900  0.0314890531926864  0.0782366831433592
  0.1861825659190757  0.9549621836629143  0.1130103523780406
  0.1914407485667411  0.9621369669872379  0.0576376636652682
  0.3599684555249283  0.0547578392010948  0.0029183954060628
  0.4737726339576085  0.1410236285365443  0.9579471416851746
  0.6929077254497216  0.0228070963319738  0.0173615763069250
  0.5542957795986396  0.0077294879460865  0.0188901965403829
  0.5912739529350830  0.0996606355968908  0.0101544555410413
  0.6723063968497982  0.1605205769786622  0.9713351439314906
  0.7999940377882950  0.1177034046074752  0.0729749456356004
  0.8590555546176191  0.9862293398108122  0.0665747099013672
  0.9280590682407137  0.8785106847149819  0.0417558712261084
  0.2044751490441854  0.2920318269257294  0.0355368169817041
  0.0936360893033878  0.1400751578522375  0.9801086314156677
  0.3817478740704772  0.1409555585547011  0.0304839798811187
  0.3984523756341289  0.0208607616524930  0.0362385855087126
  0.3281829510314225  0.0923252916403001  0.0750567272556779
  0.4338156129069688  0.1200455207402484  0.0433812734562622
  0.4782435116128880  0.2015300454004247  0.9979053994583182
  0.5409924714851115  0.1540410970953516  0.0004257584633294
  0.7512383312629680  0.1133403399085111  0.0297900027085234
  0.7999136702391283  0.0945354397017084  0.9683925717340216
  0.7824068122376957  0.0728051650779591  0.0508254259491636
  0.0353127242825124  0.0990989775509519  0.0965788064141080
  0.9527134146262810  0.9824397352056735  0.9739998461411190
  0.0402798788631316  0.1414127965120215  0.9968662144960732
  0.0645350646121088  0.9560468155831359  0.9509034224341448
  0.1117724544986487  0.2031147606794477  0.0163106441275360
  0.2391685485540407  0.2107868737197478  0.0262878745201718
  0.2903047112902186  0.0623864283766409  0.0519403808456431
  0.4261043282525563  0.1082315241606437  0.9495735320533285
  0.3378454303333314  0.0419732651097817  0.0601361482958538
  0.5143708919881220  0.1021762979460590  0.0046057730696134
  0.5318292124090647  0.0564238986581174  0.0363410803731696
  0.7587438713421477  0.2298070378873405  0.0400760752811635
  0.8248270434262537  0.1734994762924984  0.0199939232455719
  0.0050023758814888  0.1756543553085237  0.9535388575851016
  0.8874874176431859  0.3440345934256683  0.8737125661387068
  0.0066663846652517  0.3004564026316388  0.0241506073511246
  0.0340547323504978  0.2874564661953798  0.9930070992892581
  0.2222342358089691  0.1863666056167048  0.9670722144809716
  0.4506439439310697  0.2305421869439428  0.0785275812514712
  0.2209467055877710  0.3306055278309401  0.9325574821867448
  0.3968027076684351  0.1783305559547301  0.9934189803088600
  0.5049102332136641  0.1908241733967131  0.0609815399516975
  0.5256544999820250  0.2987053355595179  0.1074974076245425
  0.6898144171485896  0.2532342029919974  0.1020158080493303
  0.7811801931595639  0.3070959116442680  0.0296457669249435
  0.7084783224074016  0.3066944843244812  0.9873814525257458
  0.9486588967903202  0.1536352411089013  0.0162061545169223
  0.0193767768707431  0.3084384272970979  0.0565480080970886
  0.0645261008432101  0.0965321035182214  0.0014180876854155
  0.1193307731306561  0.3521652250572345  0.0389887787907455
  0.2075395336176769  0.2581538567896899  0.9967460082288468
  0.2834358671386710  0.3498389706507865  0.0726131052750176
  0.2992292505108267  0.4371901435410663  0.0424341126408834
  0.2637014130076736  0.3119897716171778  0.0431698720954827
  0.4029839769505941  0.2563660344636105  0.0574522586587065
  0.6180664956511635  0.3406151578364600  0.9589694888846836
  0.4947034464963238  0.3154845550264440  0.9398505109675312
  0.7850121639982532  0.4315375621539346  0.0739540013961815
  0.9748664880431264  0.2225592080607726  0.0222823551689686
  0.8185301286558939  0.3618245641957216  0.0286868481029572
  0.1700392421625381  0.3666528619957461  0.9445327743343768
  0.1628349866964456  0.3657120041155792  0.9737004066433386
  0.1820539373385444  0.5981614475421679  0.0693860822773900
  0.2618443828600903  0.4012965415589065  0.9741350980659433
  0.3197396935737942  0.5580422030844332  0.0439528484678462
  0.3165913356948877  0.4345643103308703  0.0070912993579455
  0.4436174606315006  0.2639630633239562  0.1191576332518238
  0.5431024188693101  0.3956847945373809  0.0349355357109573
  0.6873524209461692  0.4029786850574837  0.0241774680045452
  0.5632593627473739  0.2923062380304131  0.0535876101016228
  0.7654447323198283  0.3922181562348825  0.0552732226663224
  0.7800539621414302  0.2937690246387774  0.9896809337557002
  0.7423491784067267  0.4253974080921097  0.0115542461541409
  0.8022532581694648  0.3959274247100026  0.9642791854907102
  0.9384507337000230  0.5800076651646648  0.1351819495572926
  0.8905177737774466  0.4476888979281028  0.0625077708785966
  0.2159139670956804  0.6455920300624456  0.9471513572850938
  0.1425149798930150  0.4560821263352253  0.0128790880240217
  0.2566877397322003  0.4411766257952934  0.0263985510709901
  0.4944206646819040  0.5513018725989554  0.0083347838725629
  0.6786923721342433  0.6192796063329737  0.9854915164575715
  0.5764581899236276  0.4515980697519879  0.0449539533436933
  0.7019257863137867  0.4996234360314276  0.9899684871661236
  0.7352119965047876  0.5056005937755259  0.0520323544860588
  0.8319948191102782  0.4189785438157685  0.0147848978852068
  0.8363099886520473  0.5539722900518669  0.0212785606499892
  0.9579644727731491  0.3320052989009952  0.0269457839272107
  0.9471283749385933  0.6087487511227181  0.9987497487872972
  0.9671439619899047  0.5681457933127021  0.0312115420688457
  0.0695719289560017  0.6378031576364833  0.0539641684316550
  0.2135741924955781  0.5869263586169353  0.9708702465078147
  0.3460527968406026  0.5322999804761253  0.0206913143780341
  0.3765765001211818  0.7366525516133677  0.0237316619896220
  0.4972430980109550  0.4227251011137483  0.9862894176366197
  0.5009603251741339  0.7635974312244116  0.0414417022236009
  0.6434226883633798  0.5549911715307445  0.9740903340540115
  0.7940277554416753  0.5115340846490568  0.0403205604835435
  0.9798923338603842  0.5442368852113688  0.1134929639396915
  0.9567307075446934  0.5327997572295615  0.0730770262749729
  0.8241075491295504  0.6793560105997685  0.9999920057056357
  0.0173996868934410  0.6793318358845752  0.0509753572927636
  0.0844684186630715  0.6578321921727195  0.9764976455423948
  0.1237034278696001  0.5648297861608853  0.0599779037414550
  0.2848791748242760  0.6133203514008372  0.9927420800964413
  0.3520055375105215  0.5782553493571925  0.9609763802731166
  0.4432674884068462  0.7174789346826245  0.9998086759858609
  0.5062240217129244  0.5466446409735184  0.0487768722056927
  0.4928370527268839  0.6359380411660496  0.0097693307205020
  0.4634829219319627  0.6520647602043965  0.9887975594358878
  0.8167134721710880  0.5390038612292614  0.9665021253498480
  0.7748404260330233  0.5412845811189797  0.0179317540779778
  0.7277635683181458  0.6895570049540680  0.9962445651410903
  0.8975278544056948  0.6422009287334873  0.0504554371254642
  0.9475005282967075  0.7217344909163472  0.9893234104167661
  0.0195673415732074  0.6368895522240479  0.9980614809890440
  0.1828356096281283  0.6654179043595789  0.9840819191492827
  0.1751186344558491  0.5677126611841388  0.0200269798716946
  0.4280264587385503  0.6834299716509449  0.0291023579553737
  0.5145743802235003  0.7573150464554672  0.0130814855534567
  0.5198016529190426  0.8532442241979794  0.0217607652356477
  0.5935354927883552  0.7714751352279308  0.0098859383656915
  0.6847251106161494  0.4779686492276412  0.9217781947574366
  0.7855155756292120  0.6338704054359212  0.9517753735446774
  0.7582048916908235  0.6676487397499855  0.0322850570296396
  0.8305981540431802  0.7225422947877149  0.9749131768433799
  0.9063857844818273  0.6294192234783722  0.9658447169086486
  0.9995811761637725  0.8683692017965896  0.0128311803627952
  0.9394079865052873  0.9650133318452134  0.9460307660753600
  0.1696158704950577  0.7642472101323463  0.0510834645223142
  0.2844974374533109  0.8558134508774629  0.9920029637067387
  0.3417770868543926  0.9837511395496108  0.9834566271198781
  0.4659046516841059  0.9797297305534869  0.9885002961644744
  0.4792808988699235  0.9263236701902571  0.9895644873878666
  0.7190449411357207  0.7106717182725149  0.0355775270780399
  0.8101313700298149  0.6197540369516332  0.9844419822952162
  0.7197683960827561  0.9023814190893589  0.0118431501325560
  0.9297387103775492  0.9253855070000512  0.0947834946468475
  0.8761781784410942  0.8324940534245400  0.9917390566681163
  0.9323368478394372  0.7764973279002021  0.9901968363950999
  0.1357034312841563  0.8906590207471794  0.0811650680824272
  0.2184224999307034  0.9048915372674671  0.9706867611158998
  0.2545750006355263  0.9850950023497660  0.0168629498542288
  0.2009213054043784  0.8621011044564213  0.0854374879872921
  0.3485382188922870  0.8759761254395002  0.0529692987089661
  0.3733251630619634  0.7958873636230308  0.0211888081192484
  0.4347535924326706  0.8999970118691394  0.0043689042805610
  0.4430348066933334  0.7659443553937706  0.0297432689649497
  0.6080063287653701  0.8611017215006598  0.0630741176505438
  0.6236255556399684  0.9307229940864872  0.0741340736532479
  0.9528946951512509  0.8335239437391806  0.1304331178093676
  0.8445693982828644  0.0344611561581374  0.0061094986076498
  0.8603088060965689  0.8448982306547563  0.0325128214767929
  0.1464276900579122  0.8962244504069758  0.0048887869004943
  0.0825577642861077  0.9884358668778717  0.0656995918626038
  0.2691876201539642  0.7822632510623322  0.0290064706349540
  0.3214016234836308  0.8964355060224420  0.0119965770218116
  0.3449842917047334  0.9381198723237176  0.9964084240974955
  0.2960089153891872  0.8751312363446004  0.0325144082884918
  0.5184245414037676  0.1238976268719227  0.9767563431315267
  0.5314472311836411  0.9361852828878838  0.9729237496871903
  0.7361632266375580  0.9963719662473025  0.1008217286950810
  0.7990144119714842  0.1426133135370407  0.9813299518309080
  0.8448236448481694  0.0805006063609639  0.0260065137094045
  0.9032669804400655  0.0740694635046708  0.0202155438011928
  0.9981834800308604  0.9249743646391764  0.0821257207834236
  0.0405025281684956  0.9610988599671302  0.0570840249373674
  0.0037894476009086  0.9923135878690985  0.0003032258686133
  0.0264488756825116  0.0198406448827413  0.0541465792332332
  0.1064361912420893  0.8301383445956318  0.0262735178803410
  0.2155555836890386  0.9532814816871991  0.9874097549806606
  0.3266160490419239  0.1978731045243691  0.1937655148795372
  0.3764309085486701  0.9112373960497706  0.0190636331740706
  0.4468643169134339  0.0266594921713903  0.0044070411220289
  0.5110275148551935  0.0513559883472254  0.9776665486047023
  0.5838217918313333  0.0759344216244742  0.0831042502502868
  0.8548571273714884  0.9471172721826733  0.0425961483080428
  0.8323592010240759  0.9081960935764144  0.0279556014520921
  0.0198574291596287  0.9988944869067353  0.0275599277519945
  0.0429052751106198  0.1076700402429154  0.0682841171231843
  0.1011546244330148  0.0764825292981826  0.0198742160977616
  0.2268159688136322  0.1334371055355135  0.9842300697497919
  0.1746036652430476  0.9921515203570053  0.0327249162994434
  0.2947384859912958  0.8535937545895962  0.0580081859589541
  0.3122769923500286  0.9967884525868058  0.0383241672269179
  0.5665471179992139  0.0905056878669583  0.0599720296465094
  0.6208386450078791  0.1941405670618011  0.0144632619505742
  0.4591407916193759  0.1557708002835625  0.9852494659962616
  0.6483546669692828  0.9967379074876561  0.9903902222982808
  0.7473985477630691  0.1073618083920849  0.0686599062505593
  0.7657780716420746  0.0305145528862241  0.0714509123949014
  0.9055316649207512  0.9419541613616218  0.0486963428866147
  0.0085462256328981  0.1882406546667212  0.0599134718176444
  0.1861517978619389  0.1686263020465688  0.1277938467009392
  0.2749292566916779  0.1677525863243119  0.0767108068056928
  0.3152267679973377  0.9764873637058358  0.1123711683939348
  0.3291054926541079  0.2388703220455710  0.0070285482560024
  0.4034414182747312  0.9536145288217881  0.0454028624809126
  0.3028321411094126  0.2617787278966048  0.0693733407298680
  0.6510941987974022  0.2078874285594736  0.0389682311152200
  0.6388294776441441  0.3007656911400574  0.0182371405296706
  0.7218538571845627  0.0538877097558839  0.0554557684831494
  0.7730480822084118  0.1767070823844392  0.0714495551879324
  0.9065329917025906  0.9994727327857120  0.0495535231488233
  0.9748768673060155  0.0436161947217997  0.0142261510258734
  0.0485911285541789  0.3125678598733401  0.9684971254163912
  0.1063509327926226  0.2319513889843989  0.0482841260224021
  0.1904476684859091  0.2350825084312476  0.0439720269096924
  0.0726341881457699  0.1710931661614623  0.0344392397516913
  0.2860315011989414  0.1659643714826515  0.9798868228434756
  0.3577180606046682  0.2768956664447515  0.0847095888869802
  0.4804159324991559  0.2593891032220199  0.1006105032776574
  0.5383239981460264  0.2297936326246059  0.0489195839032917
  0.5814846384151906  0.2978855905315072  0.9945172260915456
  0.7312748055442384  0.2761127333750224  0.0217320551792142
  0.6973992423134945  0.1673503246385337  0.0967233188173324
  0.7923397027642523  0.2496803016434512  0.0044193671504829
  0.8531092366166675  0.2143786843652151  0.0140461914989203
  0.0526993619965808  0.3144649603972027  0.9133412310861218
  0.1085852463401054  0.3402774015461745  0.9786515422428792
  0.1367251626033905  0.3381574717917104  0.0712831125679116
  0.2023033662984304  0.3377591713208261  0.0623870782005014
  0.2560380399859312  0.2967277854341646  0.0743071799244319
  0.3583267986106620  0.0874994330405343  0.0420780709324831
  0.2660706390946572  0.2815457807048389  0.1207202809421801
  0.5989729155939898  0.3727416140562454  0.0693985608827106
  0.5096392513731871  0.3029414049522998  0.0642398828412851
  0.7914052894452013  0.2697781751321600  0.0564693726306444
  0.7166881424305060  0.1898788725026890  0.0378463397316935
  0.9848963007206777  0.1493649214003483  0.9832705761254417
  0.9980651697883047  0.3122925842800583  0.0885210440270967
  0.1004251621959611  0.5865009378299817  0.9705546816448987
  0.0453236627889453  0.4363701437398220  0.0841091425940803
  0.1837170207766050  0.3812453337283017  0.0344510426576790
  0.2210330804253715  0.3490077938162486  0.9851320981868810
  0.1783281286063314  0.3870720055086636  0.0007627032522493
  0.4909586290001045  0.3593566469784690  0.0457374985644634
  0.3326230127541763  0.3698738591944917  0.0650136995668191
  0.3946649778581630  0.2929183307131282  0.1335576955268749
  0.6116384965694621  0.3212316305261353  0.0412847960307730
  0.6884457297353705  0.3906443621195308  0.0516551122485964
  0.8800539440891697  0.3505781068643685  0.0905908814798408
  0.8508023236597140  0.3237228121542373  0.0701610541224937
  0.8993744381821003  0.1873150050855301  0.0429155946379964
  0.0611586531811099  0.3829995411551650  0.9734059746054768
  0.1347540494265971  0.5855975886747800  0.1117368068600086
  0.1685072376794210  0.6361370337819849  0.0107730897299874
  0.2825076597799878  0.4011085129237983  0.0639022989992739
  0.2945645729074329  0.4997525349363059  0.1010876340123090
  0.4803614296393519  0.5826420812134572  0.0361168454075553
  0.5502012624948449  0.5431180030358433  0.0035657224509364
  0.6872358935276992  0.4915170924202599  0.0936887750767639
  0.5527730128678812  0.3825185032677254  0.9950327488187085
  0.6453539159318922  0.3204852523306414  0.9879651727102825
  0.7562465239144913  0.4486850436676590  0.0453494865796102
  0.9341273429483081  0.4740972357471307  0.0785765623536889
  0.1879979391884135  0.5033643021479151  0.0030287810231542
  0.8641601878717893  0.4253713798769994  0.0871309974843868
  0.9864808963942693  0.4992771987196605  0.9834549605084675
  0.1187427803973833  0.5460582946039594  0.0899252796291137
  0.2720214907231053  0.5578336339918337  0.0196081657960434
  0.4914713792093082  0.5939731191640192  0.0696445019505632
  0.3235157502320050  0.5590006976171225  0.1385609714318790
  0.4320894585755966  0.5726320539934662  0.0243904015451974
  0.5505570499455672  0.4372070773380017  0.9665661969168582
  0.6712675407892661  0.5689151947479658  0.0070440671675414
  0.7679136097562989  0.5716737008932853  0.0534781188461082
  0.6898863529781210  0.4612509265936637  0.0140748948980018
  0.7941013656355764  0.6287935554997617  0.0591763337980993
  0.9579657050635078  0.5870272857198415  0.0819210463903275
  0.9878094902407071  0.7019638572672662  0.0244146676614960
  0.0603336642321537  0.6001862848230459  0.0214381665663623
  0.1309305156091227  0.7023985270762765  0.9804907856588514
  0.2309848906420413  0.5593682459189608  0.9995510468176292
  0.2118144597754821  0.5944789410874662  0.0408109218655142
  0.4279454547042718  0.4508891691545003  0.0652234178086175
  0.4052315468773457  0.5275535942006044  0.9854572349016095
  0.5062209781799751  0.6565728311207764  0.0626239412221423
  0.6159479055831980  0.4568212353697305  0.0069500168159990
  0.7630540048029104  0.7133950416306689  0.0592982157986768
  0.8537342125604468  0.4962996029826101  0.0688329187386358
  0.9336710471359524  0.5267686587778755  0.9919452651576748
  0.9818409636374952  0.6111725090739597  0.9737423049251674
  0.9567521244079700  0.8302786497651908  0.9986745122945351
  0.1271401207291376  0.7314496372953556  0.0659120790868002
  0.2363974428807012  0.5402890590230882  0.0534164033901945
  0.1802591180693014  0.7624493859026344  0.9739464939436502
  0.2603935364505148  0.7045213094290332  0.9966615462953285
  0.2713405002352971  0.6144892912373692  0.0275272910552573
  0.5623975133885750  0.7072830180220677  0.0024877448737612
  0.5512901290472172  0.8098880129825616  0.9853378226923155
  0.6324119244955213  0.6343848512332499  0.9713176845078451
  0.7774421183168059  0.6407474487971214  0.0120560724580088
  0.6750575380414148  0.7406859209859604  0.0274785525192840
  0.7109525642483376  0.5586186241845397  0.9796688888134355
  0.9186355178816044  0.6681514583953287  0.0001705355997146
  0.9829307627365935  0.6222170408498826  0.9457325547336595
  0.0946377650410568  0.6493105996758786  0.0216910321488086
  0.1020923789519159  0.7571472553442504  0.9804605638702597
  0.1938330574465539  0.8733155654833098  0.0580193692328805
  0.3671054133702114  0.8281672906058120  0.0722622463060176
  0.4845870182767911  0.8217087873263651  0.9921897857698880
  0.4465519662081832  0.8959541802541366  0.9755719178939160
  0.5604239845256132  0.6564879171457747  0.1061235623969807
  0.5181736958155625  0.7982653511344537  0.9272445709420296
  0.6645938488137304  0.7328210473774135  0.1026525731824464
  0.6876696349138669  0.8390492151372939  0.0073652660934442
  0.7036991988724424  0.9017494562363737  0.0487217739249388
  0.8304941146543428  0.5721167645422369  0.9937704368945504
  0.0783229737548652  0.7233609193951267  0.0495801762393526
  0.1920511386884840  0.7160100035207435  0.9909236452580856
  0.9925236946756044  0.7474995917217413  0.9728200437723871
  0.2183481857122658  0.9467851514627128  0.1409966494006341
  0.1954737274694764  0.7355679062990959  0.0225609629270380
  0.3113930710099737  0.7790329426887013  0.0469146099705569